          85

O       0.8113162     -2.8378932     -0.0203189
C       1.9524315     -3.0972134     -0.3267804
O       2.3354731     -4.2817697     -0.7974857
C       1.3065853     -5.2331925     -1.1074091
C       0.8190422     -5.0209820     -2.5259327
C       3.1109886     -2.1340879     -0.2471186
N       2.7457266     -0.9423999      0.4307419
C       3.7360930     -0.2101807      0.7812343
C       3.6023762      1.2203351      1.1019638
C       2.4694478      1.9415156      0.6974662
C       2.4136974      3.3187080      0.8915468
C       3.4803106      3.9890010      1.4965427
C       4.6129074      3.2782620      1.8952889
C       4.6763254      1.9017121      1.6872656
H       1.7728484     -6.2170933     -0.9779628
H       0.4922035     -5.1235824     -0.3797193
H       1.6329111     -5.1977018     -3.2427536
H       0.4732097     -3.9861419     -2.6554916
H      -0.0032577     -5.7140656     -2.7513745
H      -0.1523923     -1.2799795     -1.7842734
H       3.9938573     -2.6549688      0.1534637
H       4.7588833     -0.6168502      0.8494946
H       1.6657978      1.4094444      0.1810129
H       1.5480139      3.8823408      0.5399322
H       3.4353170      5.0701747      1.6378893
H       5.4544109      3.8003502      2.3535968
H       5.5731806      1.3454306      1.9704586
H       0.3908079     -0.2524601      4.9958569
C       0.1337583     -0.0400344      3.9628550
H      -1.1319495      1.7947341      3.8684126
H       1.2114156     -2.6860262      2.2178891
C      -0.6061926      0.9601784      3.4148919
H       1.0918472     -2.5455254      4.0037538
C       1.3829911     -2.0358480      3.0791037
N       0.5463374     -0.8501880      2.9269094
H      -5.9894731     -0.0325405      3.2338047
H      -6.5087058     -2.4726734      3.0869946
C      -5.3995559     -0.6717217      2.5747672
C      -5.6949837     -2.0552896      2.4922995
N      -0.6304682      0.7342600      2.0512033
H       2.4376640     -1.7398939      3.1219842
C       0.0831810     -0.3665254      1.7771884
C      -4.3785394     -0.1276693      1.8305474
C      -4.9566059     -2.8655741      1.6614031
H      -0.3087748      3.3290977      1.9008791
H      -4.1596255      0.9399499      1.8976169
H      -5.1766310     -3.9330222      1.5883499
C      -1.2995774      1.5729086      1.1013521
C      -1.0170552      2.9607047      1.1581161
C      -3.5950757     -0.9434672      0.9653295
C      -3.8933693     -2.3357513      0.8816467
H       0.3123528     -0.7771570      0.7900650
C      -2.5228971     -0.4173773      0.1869284
C      -3.1106376     -3.1551461      0.0182500
C      -2.1960883      1.0349890      0.2021416
C      -1.6214385      3.8117910      0.2720024
H      -3.3435237     -4.2200937     -0.0465103
H      -1.4049549      4.8811266      0.3005828
C      -2.0775934     -2.6342303     -0.7160448
C      -1.7751525     -1.2458363     -0.6332047
C      -2.8239439      1.9189138     -0.7351767
C      -2.5294216      3.3134434     -0.7023648
O      -0.7780661     -0.6746667     -1.3146511
H      -1.4623392     -3.2652927     -1.3583715
C      -3.7431187      1.4359183     -1.7080301
C      -3.1539098      4.1785412     -1.6418969
H      -3.9713302      0.3696891     -1.7370272
H      -2.9179104      5.2439422     -1.6094551
C      -4.3322824      2.2969533     -2.6029370
C      -4.0346884      3.6824422     -2.5722253
H      -5.0325356      1.9121757     -3.3456366
H      -4.5079367      4.3529821     -3.2909445
H       1.2336019      1.1806311     -3.7645915
C       3.9207542      0.5936598     -2.0711167
C       4.5509617     -0.6250114     -1.8040661
C       2.2970341     -1.0507868     -2.3200806
C       1.5201193      1.2569819     -2.7042940
C       3.5477432     -1.7066155     -1.7605959
N       2.5075378      0.2674214     -2.3539734
O       1.2560493     -1.6445194     -2.6301263
O       4.2759890      1.7714140     -2.1243391
H       5.6049668     -0.7146740     -1.5537121
H       1.9770319      2.2373744     -2.5206752
H       3.7664110     -2.6515792     -2.2664652
H       0.6171477      1.1340953     -2.0884279
          85

O       0.8096248     -2.8332856     -0.0251837
C       1.9515603     -3.0951809     -0.3267605
O       2.3340902     -4.2815021     -0.7934210
C       1.3042604     -5.2311340     -1.1058267
C       0.8213941     -5.0186470     -2.5258765
C       3.1111972     -2.1337091     -0.2461049
N       2.7476587     -0.9420707      0.4317970
C       3.7389476     -0.2098176      0.7801751
C       3.6052581      1.2206885      1.1006584
C       2.4707839      1.9406958      0.6984931
C       2.4137390      3.3177588      0.8928048
C       3.4807180      3.9892685      1.4957652
C       4.6150161      3.2798033      1.8918671
C       4.6796849      1.9033258      1.6835482
H       1.7683168     -6.2158151     -0.9745136
H       0.4879754     -5.1196182     -0.3805551
H       1.6374819     -5.1961474     -3.2399628
H       0.4769292     -3.9835437     -2.6567188
H      -0.0007063     -5.7110970     -2.7539386
H      -0.1542105     -1.2842582     -1.7839439
H       3.9941903     -2.6556429      0.1528443
H       4.7616412     -0.6167340      0.8478627
H       1.6667671      1.4077080      0.1836415
H       1.5467291      3.8803880      0.5429124
H       3.4346830      5.0703525      1.6374945
H       5.4568585      3.8028435      2.3484645
H       5.5777882      1.3481215      1.9648691
H       0.3919587     -0.2542314      4.9942462
C       0.1345371     -0.0414487      3.9614109
H      -1.1307108      1.7936990      3.8680488
H       1.2082838     -2.6883793      2.2159681
C      -0.6053811      0.9591334      3.4140537
H       1.0926045     -2.5465596      4.0018743
C       1.3823252     -2.0377336      3.0763215
N       0.5463896     -0.8514675      2.9250632
H      -5.9882675     -0.0310673      3.2348979
H      -6.5088220     -2.4709808      3.0890341
C      -5.3990354     -0.6707257      2.5757117
C      -5.6952232     -2.0541492      2.4937860
N      -0.6303618      0.7335066      2.0503182
H       2.4373335     -1.7427322      3.1166971
C       0.0829525     -0.3673012      1.7756994
C      -4.3781481     -0.1273306      1.8307980
C      -4.9576950     -2.8649551      1.6626647
H      -0.3094105      3.3282503      1.9009377
H      -4.1587564      0.9402094      1.8975359
H      -5.1782414     -3.9323152      1.5899281
C      -1.2997175      1.5721464      1.1007053
C      -1.0174432      2.9599740      1.1578852
C      -3.5954962     -0.9436486      0.9653327
C      -3.8946428     -2.3357954      0.8822185
H       0.3115776     -0.7777684      0.7883823
C      -2.5233462     -0.4182211      0.1862175
C      -3.1129800     -3.1559148      0.0185799
C      -2.1960606      1.0341701      0.2012879
C      -1.6216362      3.8111847      0.2717915
H      -3.3465847     -4.2207221     -0.0458409
H      -1.4052337      4.8805296      0.3005938
C      -2.0801098     -2.6357430     -0.7164051
C      -1.7767129     -1.2475391     -0.6340840
C      -2.8240019      1.9183671     -0.7357802
C      -2.5293888      3.3129055     -0.7027982
O      -0.7795636     -0.6776809     -1.3167971
H      -1.4657270     -3.2672613     -1.3591329
C      -3.7434787      1.4357173     -1.7085147
C      -3.1536573      4.1782033     -1.6422833
H      -3.9719858      0.3695521     -1.7375765
H      -2.9174082      5.2435455     -1.6097488
C      -4.3325781      2.2969758     -2.6032610
C      -4.0345840      3.6823763     -2.5726036
H      -5.0330731      1.9124094     -3.3458415
H      -4.5076905      4.3530460     -3.2912945
H       1.2253565      1.1777436     -3.7557041
C       3.9193893      0.5950421     -2.0678523
C       4.5519598     -0.6232988     -1.8031474
C       2.2993578     -1.0518982     -2.3210719
C       1.5169693      1.2553292     -2.6969630
C       3.5506611     -1.7061464     -1.7614437
N       2.5071566      0.2671424     -2.3508566
O       1.2597730     -1.6462124     -2.6337658
O       4.2730671      1.7732943     -2.1186006
H       5.6061499     -0.7116435     -1.5531828
H       1.9735005      2.2363866     -2.5160845
H       3.7710408     -2.6518411     -2.2649277
H       0.6170307      1.1318868     -2.0768783
          85

O       0.8076813     -2.8200229     -0.0404678
C       1.9507819     -3.0907041     -0.3269015
O       2.3310280     -4.2819008     -0.7813521
C       1.2982179     -5.2260324     -1.1011711
C       0.8278162     -5.0122392     -2.5252438
C       3.1156302     -2.1333526     -0.2454896
N       2.7538344     -0.9412734      0.4339959
C       3.7467325     -0.2092258      0.7778336
C       3.6128160      1.2217850      1.0969807
C       2.4745174      1.9385002      0.7001364
C       2.4138144      3.3151978      0.8953597
C       3.4812343      3.9897100      1.4941030
C       4.6197883      3.2836882      1.8839917
C       4.6880252      1.9074895      1.6744107
H       1.7559778     -6.2129859     -0.9652984
H       0.4768963     -5.1094453     -0.3823544
H       1.6495582     -5.1921276     -3.2322414
H       0.4872143     -3.9763661     -2.6595006
H       0.0060317     -5.7028307     -2.7600457
H      -0.1588364     -1.2938200     -1.7846852
H       3.9929605     -2.6647456      0.1734183
H       4.7692162     -0.6164002      0.8459362
H       1.6698388      1.4030138      0.1891007
H       1.5435296      3.8752297      0.5495786
H       3.4321794      5.0704724      1.6372520
H       5.4620529      3.8091406      2.3370156
H       5.5891959      1.3550651      1.9513815
H       0.3947390     -0.2585354      4.9903270
C       0.1364612     -0.0448455      3.9578918
H      -1.1277757      1.7911473      3.8671566
H       1.2010152     -2.6940893      2.2115258
C      -0.6034067      0.9566083      3.4120010
H       1.0940893     -2.5490821      3.9973204
C       1.3807365     -2.0422222      3.0697557
N       0.5466384     -0.8544658      2.9205482
H      -5.9855701     -0.0279514      3.2377027
H      -6.5090742     -2.4673708      3.0938744
C      -5.3979168     -0.6686349      2.5781042
C      -5.6958039     -2.0517366      2.4973460
N      -0.6300093      0.7317715      2.0481473
H       2.4365820     -1.7496880      3.1045340
C       0.0825772     -0.3690294      1.7720192
C      -4.3773833     -0.1266475      1.8315893
C      -4.9602306     -2.8636472      1.6656234
H      -0.3107991      3.3263280      1.9010037
H      -4.1569461      0.9407165      1.8976331
H      -5.1819192     -3.9308102      1.5935521
C      -1.3000530      1.5704436      1.0991860
C      -1.0182845      2.9583292      1.1573049
C      -3.5965808     -0.9440666      0.9654619
C      -3.8976431     -2.3359101      0.8835934
H       0.3101103     -0.7788114      0.7841340
C      -2.5245356     -0.4200948      0.1846708
C      -3.1183863     -3.1576479      0.0194047
C      -2.1961535      1.0323646      0.1994174
C      -1.6220252      3.8098301      0.2712498
H      -3.3535906     -4.2221424     -0.0442569
H      -1.4057384      4.8791819      0.3005144
C      -2.0859492     -2.6391274     -0.7172043
C      -1.7804883     -1.2513278     -0.6361634
C      -2.8242737      1.9171987     -0.7370767
C      -2.5293036      3.3117293     -0.7038090
O      -0.7833795     -0.6843263     -1.3219180
H      -1.4736099     -3.2716433     -1.3609490
C      -3.7444779      1.4353620     -1.7095109
C      -3.1529563      4.1774786     -1.6432645
H      -3.9737755      0.3693664     -1.7386548
H      -2.9160170      5.2426608     -1.6106012
C      -4.3333071      2.2971251     -2.6039773
C      -4.0342496      3.6822921     -2.5735491
H      -5.0343657      1.9130541     -3.3462801
H      -4.5069301      4.3532413     -3.2922574
H       1.2057525      1.1721555     -3.7337657
C       3.9163347      0.5974578     -2.0579628
C       4.5530124     -0.6189226     -1.7996780
C       2.3034346     -1.0538802     -2.3230951
C       1.5091222      1.2520396     -2.6784812
C       3.5544413     -1.7068335     -1.7588292
N       2.5051838      0.2663024     -2.3422272
O       1.2676973     -1.6497315     -2.6437933
O       4.2655498      1.7776486     -2.1040824
H       5.6078486     -0.7040209     -1.5550636
H       1.9655002      2.2342984     -2.5036542
H       3.7824967     -2.6483584     -2.2837601
H       0.6158481      1.1277164     -2.0488686
          85

O       0.8042061     -2.8073020     -0.0555383
C       1.9495244     -3.0854794     -0.3283391
O       2.3273191     -4.2827885     -0.7689657
C       1.2918895     -5.2213410     -1.0968728
C       0.8342082     -5.0048779     -2.5246921
C       3.1168694     -2.1339181     -0.2405698
N       2.7593936     -0.9407881      0.4349878
C       3.7545501     -0.2083214      0.7745370
C       3.6205135      1.2225995      1.0928913
C       2.4786908      1.9362044      0.7004922
C       2.4136108      3.3123461      0.8972730
C       3.4804264      3.9899778      1.4934970
C       4.6233126      3.2875921      1.8773241
C       4.6960052      1.9118555      1.6656973
H       1.7436110     -6.2105461     -0.9574187
H       0.4654978     -5.1007446     -0.3844754
H       1.6625107     -5.1841535     -3.2242200
H       0.4955863     -3.9686698     -2.6606138
H       0.0143824     -5.6948170     -2.7681815
H      -0.1631465     -1.3042081     -1.7832139
H       3.9943716     -2.6654645      0.1677281
H       4.7766489     -0.6163045      0.8420752
H       1.6741099      1.3982251      0.1921364
H       1.5401993      3.8695869      0.5549273
H       3.4276728      5.0702652      1.6389873
H       5.4654110      3.8156102      2.3277135
H       5.6003128      1.3625220      1.9386229
H       0.3975605     -0.2619137      4.9870497
C       0.1383472     -0.0474235      3.9550131
H      -1.1247736      1.7894886      3.8668176
H       1.1938202     -2.6985619      2.2067974
C      -0.6014626      0.9548944      3.4105442
H       1.0951622     -2.5514625      3.9927905
C       1.3789030     -2.0461294      3.0635143
N       0.5466872     -0.8567786      2.9167187
H      -5.9836665     -0.0260107      3.2404604
H      -6.5093598     -2.4650701      3.0981487
C      -5.3973211     -0.6674072      2.5803912
C      -5.6964826     -2.0502542      2.5005204
N      -0.6298445      0.7306915      2.0465923
H       2.4355373     -1.7560065      3.0929242
C       0.0819819     -0.3701536      1.7690272
C      -4.3772223     -0.1263244      1.8324904
C      -4.9624990     -2.8628408      1.6681209
H      -0.3119939      3.3249437      1.9011528
H      -4.1561109      0.9409258      1.8981104
H      -5.1849526     -3.9298638      1.5964215
C      -1.3005707      1.5693069      1.0982131
C      -1.0190830      2.9572159      1.1569570
C      -3.5978232     -0.9443992      0.9656737
C      -3.9004222     -2.3360062      0.8848254
H       0.3084844     -0.7794913      0.7806580
C      -2.5257286     -0.4215049      0.1835363
C      -3.1232080     -3.1590936      0.0201995
C      -2.1964823      1.0310907      0.1981501
C      -1.6222281      3.8089358      0.2707725
H      -3.3597463     -4.2233169     -0.0428485
H      -1.4058075      4.8782529      0.3002338
C      -2.0911513     -2.6419036     -0.7176557
C      -1.7838629     -1.2544857     -0.6376132
C      -2.8247047      1.9164966     -0.7378896
C      -2.5291877      3.3109878     -0.7045968
O      -0.7863847     -0.6906068     -1.3261641
H      -1.4805375     -3.2751508     -1.3623522
C      -3.7456123      1.4353936     -1.7100096
C      -3.1521022      4.1770874     -1.6442078
H      -3.9758129      0.3695884     -1.7390582
H      -2.9143598      5.2420905     -1.6116039
C      -4.3339717      2.2975421     -2.6044344
C      -4.0337257      3.6824535     -2.5744467
H      -5.0355453      1.9138977     -3.3464691
H      -4.5058528      4.3536134     -3.2933187
H       1.1858214      1.1634077     -3.7104396
C       3.9124863      0.6006423     -2.0495704
C       4.5555843     -0.6159940     -1.7966954
C       2.3092254     -1.0573729     -2.3257360
C       1.5011917      1.2466872     -2.6589759
C       3.5618843     -1.7059186     -1.7621892
N       2.5037897      0.2647178     -2.3324477
O       1.2778385     -1.6550247     -2.6547511
O       4.2576376      1.7817896     -2.0903904
H       5.6116521     -0.6982110     -1.5537643
H       1.9565377      2.2306109     -2.4910430
H       3.7920885     -2.6501016     -2.2745087
H       0.6152374      1.1213076     -2.0193623
          85

O       0.7994676     -2.7960425     -0.0711827
C       1.9464109     -3.0814581     -0.3284792
O       2.3229691     -4.2837531     -0.7559618
C       1.2861847     -5.2174098     -1.0935508
C       0.8403735     -4.9966712     -2.5244943
C       3.1183145     -2.1334758     -0.2410745
N       2.7654294     -0.9401399      0.4374605
C       3.7630701     -0.2075246      0.7700813
C       3.6289137      1.2239326      1.0872125
C       2.4835584      1.9340262      0.6989818
C       2.4131597      3.3094207      0.8985400
C       3.4783955      3.9901304      1.4939982
C       4.6255296      3.2916863      1.8722728
C       4.7036973      1.9166780      1.6569535
H       1.7332342     -6.2084787     -0.9524906
H       0.4548386     -5.0949802     -0.3871669
H       1.6753984     -5.1718897     -3.2170708
H       0.5010081     -3.9608069     -2.6602517
H       0.0243173     -5.6876636     -2.7775192
H      -0.1674252     -1.3141434     -1.7808149
H       3.9919578     -2.6706258      0.1714237
H       4.7852360     -0.6155302      0.8353304
H       1.6796759      1.3934075      0.1925981
H       1.5366381      3.8636863      0.5594303
H       3.4211944      5.0697281      1.6429500
H       5.4666090      3.8221976      2.3216441
H       5.6111390      1.3707019      1.9262474
H       0.4003883     -0.2640791      4.9845501
C       0.1401234     -0.0491129      3.9528747
H      -1.1218880      1.7886907      3.8667777
H       1.1875110     -2.7016486      2.2023033
C      -0.5996912      0.9538960      3.4095914
H       1.0956637     -2.5539414      3.9883765
C       1.3771191     -2.0492204      3.0580881
N       0.5465340     -0.8584767      2.9138004
H      -5.9826000     -0.0252497      3.2431921
H      -6.5095610     -2.4641148      3.1017606
C      -5.3972476     -0.6669878      2.5825751
C      -5.6971649     -2.0496675      2.5032271
N      -0.6299397      0.7300003      2.0455973
H       2.4343880     -1.7611631      3.0832677
C       0.0810735     -0.3710015      1.7668652
C      -4.3776510     -0.1262763      1.8335639
C      -4.9643625     -2.8624630      1.6700630
H      -0.3127916      3.3239929      1.9012269
H      -4.1562127      0.9409171      1.8990638
H      -5.1871404     -3.9294205      1.5985113
C      -1.3012040      1.5686274      1.0977150
C      -1.0196624      2.9565088      1.1567191
C      -3.5992463     -0.9445383      0.9659838
C      -3.9028923     -2.3359857      0.8857752
H       0.3065581     -0.7800315      0.7780925
C      -2.5270286     -0.4223195      0.1828582
C      -3.1272036     -3.1600713      0.0208669
C      -2.1970959      1.0303866      0.1974951
C      -1.6221676      3.8084071      0.2703087
H      -3.3645967     -4.2241223     -0.0415967
H      -1.4053456      4.8776421      0.2997334
C      -2.0954506     -2.6438416     -0.7177476
C      -1.7868731     -1.2567713     -0.6384116
C      -2.8252756      1.9162470     -0.7382589
C      -2.5290664      3.3106565     -0.7051725
O      -0.7886616     -0.6959835     -1.3293303
H      -1.4859181     -3.2776577     -1.3628998
C      -3.7467388      1.4356862     -1.7101061
C      -3.1512576      4.1769674     -1.6450661
H      -3.9778161      0.3700653     -1.7389161
H      -2.9127400      5.2418013     -1.6126856
C      -4.3344949      2.2980545     -2.6047213
C      -4.0331339      3.6827266     -2.5752600
H      -5.0364382      1.9147154     -3.3465615
H      -4.5046702      4.3539983     -3.2944113
H       1.1660661      1.1553795     -3.6867926
C       3.9090551      0.6023083     -2.0415581
C       4.5582929     -0.6120791     -1.7957349
C       2.3152886     -1.0620335     -2.3284113
C       1.4927927      1.2405617     -2.6389916
C       3.5688961     -1.7068229     -1.7614451
N       2.5021059      0.2618628     -2.3229638
O       1.2889980     -1.6610925     -2.6683574
O       4.2495088      1.7849938     -2.0775574
H       5.6157509     -0.6906171     -1.5594018
H       1.9467858      2.2260184     -2.4763453
H       3.8051022     -2.6504357     -2.2737580
H       0.6139664      1.1130586     -1.9900749
          85

O       0.7887523     -2.7906783     -0.0835788
C       1.9390246     -3.0777982     -0.3263072
O       2.3170751     -4.2843600     -0.7420509
C       1.2824617     -5.2154790     -1.0925071
C       0.8453483     -4.9889828     -2.5255447
C       3.1153292     -2.1352168     -0.2324249
N       2.7711573     -0.9410738      0.4425840
C       3.7717727     -0.2066732      0.7660986
C       3.6364159      1.2250841      1.0807344
C       2.4879234      1.9324247      0.6961387
C       2.4126702      3.3070562      0.8991827
C       3.4758588      3.9903654      1.4953004
C       4.6265348      3.2951429      1.8687141
C       4.7099739      1.9211441      1.6486902
H       1.7288883     -6.2071821     -0.9537372
H       0.4460654     -5.0966001     -0.3911382
H       1.6849665     -5.1588611     -3.2139395
H       0.5036533     -3.9537532     -2.6592519
H       0.0328995     -5.6814272     -2.7862745
H      -0.1702833     -1.3230859     -1.7754632
H       3.9883165     -2.6768658      0.1730444
H       4.7942444     -0.6142742      0.8269309
H       1.6845970      1.3899020      0.1911567
H       1.5334070      3.8587359      0.5629744
H       3.4143354      5.0691544      1.6484667
H       5.4662784      3.8274111      2.3185594
H       5.6200238      1.3780922      1.9151192
H       0.4030061     -0.2653481      4.9826823
C       0.1416207     -0.0501795      3.9513296
H      -1.1194789      1.7883539      3.8669209
H       1.1838312     -2.7029641      2.1980139
C      -0.5983160      0.9533009      3.4090256
H       1.0955764     -2.5563246      3.9843219
C       1.3760573     -2.0512276      3.0539223
N       0.5463159     -0.8596706      2.9116679
H      -5.9822396     -0.0254938      3.2458296
H      -6.5097095     -2.4642586      3.1045032
C      -5.3975399     -0.6672178      2.5846201
C      -5.6977546     -2.0498031      2.5053746
N      -0.6303059      0.7294987      2.0450222
H       2.4335895     -1.7641379      3.0772578
C       0.0798919     -0.3717718      1.7654089
C      -4.3784724     -0.1264022      1.8348004
C      -4.9656676     -2.8624315      1.6714768
H      -0.3129666      3.3233361      1.9010253
H      -4.1570038      0.9407876      1.9004277
H      -5.1884427     -3.9293781      1.5998253
C      -1.3018273      1.5682901      1.0975556
C      -1.0198804      2.9560857      1.1564573
C      -3.6006830     -0.9444637      0.9664579
C      -3.9048064     -2.3358467      0.8865432
H       0.3036730     -0.7812684      0.7764514
C      -2.5283665     -0.4225185      0.1826533
C      -3.1302381     -3.1604565      0.0212633
C      -2.1979392      1.0302093      0.1973809
C      -1.6218789      3.8081280      0.2698435
H      -3.3680343     -4.2244228     -0.0408355
H      -1.4044948      4.8772555      0.2990654
C      -2.0989788     -2.6446982     -0.7178691
C      -1.7894666     -1.2580133     -0.6386341
C      -2.8259310      1.9163340     -0.7382925
C      -2.5289718      3.3106208     -0.7055683
O      -0.7903067     -0.6998517     -1.3315217
H      -1.4896316     -3.2789438     -1.3626611
C      -3.7477400      1.4360585     -1.7099458
C      -3.1505379      4.1769872     -1.6458337
H      -3.9795312      0.3705857     -1.7384002
H      -2.9113731      5.2416862     -1.6138027
C      -4.3348524      2.2984686     -2.6049313
C      -4.0325677      3.6829473     -2.5759899
H      -5.0369917      1.9153021     -3.3466740
H      -4.5035518      4.3542378     -3.2954842
H       1.1488689      1.1477429     -3.6653818
C       3.9055567      0.6058921     -2.0371716
C       4.5632384     -0.6092006     -1.8018367
C       2.3249190     -1.0663971     -2.3343433
C       1.4845126      1.2342117     -2.6205067
C       3.5796798     -1.7062221     -1.7692051
N       2.5015767      0.2603803     -2.3143418
O       1.3033804     -1.6675159     -2.6812776
O       4.2416330      1.7896587     -2.0661378
H       5.6242157     -0.6834413     -1.5783240
H       1.9347156      2.2219750     -2.4612515
H       3.8187105     -2.6543501     -2.2710840
H       0.6118414      1.1024520     -1.9642627
          85

O       0.7758635     -2.7912981     -0.0920294
C       1.9313589     -3.0778823     -0.3149374
O       2.3132582     -4.2833813     -0.7332154
C       1.2818997     -5.2134477     -1.0933363
C       0.8471180     -4.9852636     -2.5269994
C       3.1063971     -2.1410244     -0.2086458
N       2.7739085     -0.9444265      0.4525802
C       3.7775656     -0.2066611      0.7650353
C       3.6406311      1.2255639      1.0746661
C       2.4899511      1.9320955      0.6938557
C       2.4123908      3.3063358      0.8997557
C       3.4744915      3.9910877      1.4961745
C       4.6264007      3.2967400      1.8673401
C       4.7125037      1.9235588      1.6436495
H       1.7288716     -6.2052200     -0.9564283
H       0.4422586     -5.0988852     -0.3950744
H       1.6874336     -5.1533552     -3.2150054
H       0.5036583     -3.9506476     -2.6602187
H       0.0360754     -5.6790488     -2.7887658
H      -0.1690570     -1.3281489     -1.7668267
H       3.9881162     -2.6816840      0.1769492
H       4.7995386     -0.6153668      0.8270827
H       1.6858252      1.3892840      0.1905149
H       1.5312930      3.8566026      0.5660197
H       3.4108272      5.0693581      1.6520338
H       5.4652434      3.8290398      2.3188815
H       5.6234611      1.3818129      1.9096760
H       0.4044272     -0.2658857      4.9817369
C       0.1424100     -0.0506908      3.9505509
H      -1.1182754      1.7881732      3.8669003
H       1.1827156     -2.7027369      2.1949714
C      -0.5976383      0.9529630      3.4086984
H       1.0954052     -2.5582301      3.9813412
C       1.3757560     -2.0520579      3.0514888
N       0.5462359     -0.8602534      2.9106059
H      -5.9821719     -0.0259574      3.2473870
H      -6.5097047     -2.4646638      3.1057663
C      -5.3977710     -0.6675332      2.5857727
C      -5.6980029     -2.0500703      2.5063906
N      -0.6305317      0.7291660      2.0446982
H       2.4333294     -1.7652124      3.0744049
C       0.0791806     -0.3722814      1.7647244
C      -4.3790314     -0.1265117      1.8355787
C      -4.9661955     -2.8625130      1.6720845
H      -0.3128151      3.3229677      1.9007781
H      -4.1575630      0.9406728      1.9013617
H      -5.1888870     -3.9294675      1.6002934
C      -1.3021237      1.5681418      1.0975117
C      -1.0198663      2.9558722      1.1562767
C      -3.6016045     -0.9443514      0.9667713
C      -3.9057138     -2.3357250      0.8869095
H       0.3015931     -0.7823518      0.7757775
C      -2.5292476     -0.4223788      0.1827451
C      -3.1315876     -3.1605135      0.0214530
C      -2.1985264      1.0302899      0.1974893
C      -1.6216622      3.8080081      0.2695965
H      -3.3695191     -4.2244404     -0.0405657
H      -1.4039356      4.8770701      0.2987062
C      -2.1005862     -2.6448237     -0.7177486
C      -1.7908410     -1.2582841     -0.6383426
C      -2.8263286      1.9164807     -0.7382287
C      -2.5289180      3.3106773     -0.7057589
O      -0.7913617     -0.7014455     -1.3325757
H      -1.4912126     -3.2789816     -1.3624898
C      -3.7482633      1.4362742     -1.7097944
C      -3.1501684      4.1770169     -1.6462695
H      -3.9804188      0.3708769     -1.7380175
H      -2.9106977      5.2416538     -1.6144667
C      -4.3350074      2.2986431     -2.6050449
C      -4.0322645      3.6830276     -2.5763973
H      -5.0372151      1.9155240     -3.3467464
H      -4.5029707      4.3543015     -3.2960886
H       1.1404702      1.1431584     -3.6543617
C       3.9001632      0.6102090     -2.0366538
C       4.5685737     -0.6067157     -1.8146511
C       2.3357056     -1.0690999     -2.3433954
C       1.4787618      1.2319520     -2.6105772
C       3.5975675     -1.7033394     -1.7926619
N       2.5013197      0.2617131     -2.3082210
O       1.3145169     -1.6699786     -2.6873158
O       4.2376552      1.7922313     -2.0587552
H       5.6344079     -0.6750625     -1.6144557
H       1.9251731      2.2217642     -2.4534739
H       3.8378670     -2.6623128     -2.2689347
H       0.6085781      1.0977170     -1.9517591
          85

O       0.7672318     -2.7921073     -0.0974266
C       1.9271018     -3.0789431     -0.3033715
O       2.3119653     -4.2825770     -0.7296924
C       1.2821836     -5.2115597     -1.0940819
C       0.8474725     -4.9838983     -2.5279005
C       3.0948546     -2.1492547     -0.1752545
N       2.7748448     -0.9475512      0.4594218
C       3.7810220     -0.2065173      0.7647096
C       3.6426245      1.2254533      1.0707610
C       2.4906225      1.9321486      0.6928354
C       2.4122959      3.3062257      0.9001585
C       3.4738932      3.9917742      1.4966109
C       4.6261015      3.2973722      1.8667952
C       4.7132678      1.9246416      1.6412892
H       1.7286952     -6.2037461     -0.9577558
H       0.4409208     -5.0984909     -0.3974403
H       1.6876924     -5.1514818     -3.2161937
H       0.5031619     -3.9496060     -2.6610031
H       0.0369466     -5.6784821     -2.7893613
H      -0.1671305     -1.3312565     -1.7590447
H       3.9920870     -2.6833760      0.1806464
H       4.8013851     -0.6179295      0.8340458
H       1.6855341      1.3895798      0.1907379
H       1.5302050      3.8558014      0.5678119
H       3.4093659      5.0698007      1.6537294
H       5.4645720      3.8293629      2.3194798
H       5.6244649      1.3833989      1.9075850
H       0.4051200     -0.2661655      4.9812540
C       0.1427951     -0.0509624      3.9501496
H      -1.1177752      1.7880001      3.8668335
H       1.1822473     -2.7021781      2.1928859
C      -0.5973370      0.9527392      3.4085030
H       1.0954345     -2.5593538      3.9795501
C       1.3757042     -2.0524391      3.0500749
N       0.5462509     -0.8605165      2.9100729
H      -5.9821540     -0.0262677      3.2482091
H      -6.5096631     -2.4649503      3.1063569
C      -5.3978891     -0.6677413      2.5863758
C      -5.6980917     -2.0502499      2.5068758
N      -0.6306065      0.7289606      2.0444855
H       2.4332788     -1.7655471      3.0727828
C       0.0788963     -0.3725992      1.7643526
C      -4.3793075     -0.1265966      1.8360136
C      -4.9663974     -2.8625741      1.6723400
H      -0.3126423      3.3227675      1.9005839
H      -4.1578249      0.9405823      1.9019002
H      -5.1890214     -3.9295349      1.6004865
C      -1.3022586      1.5680660      1.0975109
C      -1.0198359      2.9557716      1.1561748
C      -3.6020860     -0.9442902      0.9669569
C      -3.9061223     -2.3356632      0.8870569
H       0.3003663     -0.7835905      0.7755710
C      -2.5297401     -0.4222439      0.1828491
C      -3.1321410     -3.1604850      0.0214863
C      -2.1988554      1.0303667      0.1975978
C      -1.6215403      3.8079560      0.2694634
H      -3.3700614     -4.2244202     -0.0404607
H      -1.4036348      4.8769856      0.2985060
C      -2.1012599     -2.6447922     -0.7176557
C      -1.7915461     -1.2582757     -0.6380795
C      -2.8265356      1.9165716     -0.7381745
C      -2.5288828      3.3107147     -0.7058639
O      -0.7920520     -0.7020713     -1.3331584
H      -1.4914374     -3.2788260     -1.3619760
C      -3.7485303      1.4363853     -1.7096987
C      -3.1499785      4.1770274     -1.6465109
H      -3.9808687      0.3710243     -1.7377664
H      -2.9103736      5.2416392     -1.6148200
C      -4.3350773      2.2987153     -2.6051094
C      -4.0321088      3.6830562     -2.5766210
H      -5.0373218      1.9156107     -3.3467844
H      -4.5026906      4.3543184     -3.2964063
H       1.1373041      1.1405180     -3.6498549
C       3.8938701      0.6140005     -2.0365072
C       4.5715427     -0.6063153     -1.8230666
C       2.3432077     -1.0706907     -2.3506922
C       1.4755937      1.2318141     -2.6063226
C       3.6157271     -1.6975223     -1.8261959
N       2.5012903      0.2641028     -2.3045535
O       1.3207623     -1.6702578     -2.6889888
O       4.2364309      1.7923611     -2.0553135
H       5.6406109     -0.6695764     -1.6402063
H       1.9188603      2.2232496     -2.4508307
H       3.8557001     -2.6707186     -2.2706031
H       0.6062195      1.0964420     -1.9468719
          85

O       0.7606158     -2.7925667     -0.1016789
C       1.9242950     -3.0797348     -0.2932032
O       2.3114013     -4.2820773     -0.7277485
C       1.2825353     -5.2097947     -1.0947541
C       0.8474863     -4.9831059     -2.5286416
C       3.0826032     -2.1583441     -0.1393887
N       2.7755530     -0.9505544      0.4641616
C       3.7838280     -0.2062497      0.7645956
C       3.6439297      1.2250782      1.0677644
C       2.4909530      1.9322639      0.6921294
C       2.4122445      3.3062117      0.9004402
C       3.4734387      3.9923653      1.4970045
C       4.6258125      3.2977446      1.8663721
C       4.7136712      1.9253797      1.6395778
H       1.7281781     -6.2025581     -0.9586503
H       0.4400586     -5.0974946     -0.3993586
H       1.6875509     -5.1505028     -3.2172276
H       0.5026000     -3.9490560     -2.6617980
H       0.0372694     -5.6782867     -2.7896867
H      -0.1655467     -1.3339887     -1.7520006
H       3.9970477     -2.6835169      0.1810053
H       4.8024101     -0.6204051      0.8418536
H       1.6849669      1.3900646      0.1910245
H       1.5294382      3.8553154      0.5690753
H       3.4083018      5.0702028      1.6551050
H       5.4640733      3.8294283      2.3199215
H       5.6249988      1.3844525      1.9061577
H       0.4056782     -0.2664827      4.9808146
C       0.1431165     -0.0512338      3.9497812
H      -1.1174356      1.7877600      3.8667860
H       1.1820593     -2.7015736      2.1909238
C      -0.5971125      0.9524989      3.4083298
H       1.0955435     -2.5602669      3.9780391
C       1.3757306     -2.0527453      3.0488550
N       0.5463156     -0.8607224      2.9095860
H      -5.9821415     -0.0265731      3.2489128
H      -6.5095863     -2.4652388      3.1068550
C      -5.3979795     -0.6679476      2.5868924
C      -5.6981376     -2.0504340      2.5072772
N      -0.6306561      0.7287805      2.0442884
H       2.4332954     -1.7657024      3.0714090
C       0.0787344     -0.3728547      1.7639917
C      -4.3795231     -0.1266859      1.8364131
C      -4.9665358     -2.8626529      1.6725431
H      -0.3124690      3.3226097      1.9003953
H      -4.1580220      0.9404864      1.9024035
H      -5.1890992     -3.9296267      1.6006218
C      -1.3023691      1.5680122      1.0975315
C      -1.0198079      2.9557016      1.1560863
C      -3.6024874     -0.9442493      0.9671420
C      -3.9064464     -2.3356154      0.8871694
H       0.2994778     -0.7848261      0.7754026
C      -2.5301631     -0.4221128      0.1829696
C      -3.1325595     -3.1604362      0.0214755
C      -2.1991467      1.0304472      0.1977254
C      -1.6214266      3.8079180      0.2693334
H      -3.3704945     -4.2243669     -0.0404558
H      -1.4033618      4.8769203      0.2983054
C      -2.1017445     -2.6447294     -0.7175921
C      -1.7921539     -1.2581910     -0.6378537
C      -2.8267202      1.9166464     -0.7381185
C      -2.5288421      3.3107478     -0.7059699
O      -0.7926710     -0.7024654     -1.3337039
H      -1.4915953     -3.2785365     -1.3617260
C      -3.7487766      1.4364702     -1.7096041
C      -3.1498090      4.1770321     -1.6467318
H      -3.9813323      0.3711511     -1.7375157
H      -2.9100896      5.2416238     -1.6151391
C      -4.3351243      2.2987705     -2.6051758
C      -4.0319720      3.6830733     -2.5768232
H      -5.0374037      1.9156758     -3.3468237
H      -4.5024552      4.3543215     -3.2966887
H       1.1351535      1.1385716     -3.6469434
C       3.8873008      0.6177731     -2.0364100
C       4.5735249     -0.6069942     -1.8290154
C       2.3492505     -1.0721266     -2.3561194
C       1.4732771      1.2320931     -2.6035690
C       3.6331867     -1.6903422     -1.8619342
N       2.5015234      0.2666800     -2.3018401
O       1.3255928     -1.6700375     -2.6898018
O       4.2359243      1.7918492     -2.0533193
H       5.6447318     -0.6652634     -1.6577387
H       1.9136070      2.2249931     -2.4494269
H       3.8709823     -2.6785735     -2.2689168
H       0.6046631      1.0957841     -1.9434470
          85

O       0.7544183     -2.7934355     -0.1063849
C       1.9219964     -3.0817121     -0.2844297
O       2.3095592     -4.2830911     -0.7275997
C       1.2815160     -5.2093447     -1.0979429
C       0.8457839     -4.9833024     -2.5317831
C       3.0715391     -2.1696268     -0.1032510
N       2.7765627     -0.9553834      0.4698044
C       3.7859973     -0.2064022      0.7642725
C       3.6445169      1.2244585      1.0629975
C       2.4907611      1.9323970      0.6895766
C       2.4117500      3.3059538      0.9003984
C       3.4724842      3.9918684      1.4981660
C       4.6253820      3.2969073      1.8653709
C       4.7139627      1.9253300      1.6356051
H       1.7263651     -6.2026893     -0.9624932
H       0.4378088     -5.0988575     -0.4037574
H       1.6854716     -5.1504992     -3.2209142
H       0.5001642     -3.9495075     -2.6648115
H       0.0358044     -5.6791001     -2.7921273
H      -0.1656107     -1.3372886     -1.7453903
H       4.0017450     -2.6854072      0.1806770
H       4.8037878     -0.6215097      0.8462010
H       1.6838079      1.3909684      0.1891473
H       1.5283158      3.8551088      0.5707014
H       3.4064969      5.0692174      1.6589861
H       5.4634327      3.8278758      2.3202403
H       5.6253557      1.3842481      1.9016776
H       0.4070003     -0.2682251      4.9793209
C       0.1438733     -0.0524729      3.9485412
H      -1.1168633      1.7864690      3.8670691
H       1.1839205     -2.7003350      2.1865817
C      -0.5967059      0.9514663      3.4079589
H       1.0961430     -2.5621810      3.9741083
C       1.3766053     -2.0531256      3.0458728
N       0.5466812     -0.8613454      2.9077836
H      -5.9822317     -0.0276835      3.2508061
H      -6.5094330     -2.4663207      3.1081377
C      -5.3982317     -0.6687565      2.5883581
C      -5.6982501     -2.0512275      2.5084041
N      -0.6308595      0.7284088      2.0438106
H       2.4339766     -1.7653913      3.0691206
C       0.0785489     -0.3730601      1.7626764
C      -4.3800952     -0.1270814      1.8376969
C      -4.9668392     -2.8631006      1.6731852
H      -0.3120037      3.3223236      1.8998302
H      -4.1586914      0.9400935      1.9039814
H      -5.1892060     -3.9300829      1.6010054
C      -1.3027879      1.5679964      1.0976031
C      -1.0196600      2.9555824      1.1557556
C      -3.6033658     -0.9442542      0.9678773
C      -3.9071866     -2.3356061      0.8876223
H       0.2985661     -0.7854280      0.7740623
C      -2.5312759     -0.4217986      0.1834024
C      -3.1339656     -3.1601950      0.0211364
C      -2.2000370      1.0306957      0.1981297
C      -1.6209914      3.8078064      0.2687903
H      -3.3722942     -4.2240050     -0.0413540
H      -1.4024019      4.8767094      0.2974050
C      -2.1035472     -2.6442404     -0.7181856
C      -1.7938883     -1.2578326     -0.6376835
C      -2.8272911      1.9168264     -0.7379845
C      -2.5287009      3.3107984     -0.7063333
O      -0.7942695     -0.7028631     -1.3346213
H      -1.4938759     -3.2774211     -1.3633595
C      -3.7494641      1.4366640     -1.7093865
C      -3.1492469      4.1769950     -1.6474433
H      -3.9826224      0.3714602     -1.7369342
H      -2.9090865      5.2414948     -1.6162184
C      -4.3352503      2.2988960     -2.6054057
C      -4.0315234      3.6830688     -2.5774612
H      -5.0375868      1.9158265     -3.3470063
H      -4.5016423      4.3542708     -3.2976017
H       1.1287907      1.1395946     -3.6432350
C       3.8799788      0.6221181     -2.0401055
C       4.5740165     -0.6079415     -1.8383889
C       2.3531546     -1.0730391     -2.3629316
C       1.4690533      1.2328816     -2.6006717
C       3.6472127     -1.6832758     -1.8960534
N       2.5007312      0.2697399     -2.3030176
O       1.3288291     -1.6693042     -2.6936884
O       4.2344293      1.7920377     -2.0544586
H       5.6465247     -0.6612397     -1.6740461
H       1.9062701      2.2270647     -2.4463086
H       3.8817876     -2.6852478     -2.2656406
H       0.6030060      1.0936118     -1.9380940
          85

O       0.7505103     -2.7931223     -0.1105041
C       1.9210395     -3.0826916     -0.2739544
O       2.3100138     -4.2831741     -0.7269468
C       1.2812388     -5.2069695     -1.0991033
C       0.8446219     -4.9834884     -2.5333589
C       3.0600638     -2.1802258     -0.0625487
N       2.7775497     -0.9587971      0.4756253
C       3.7884616     -0.2055148      0.7643153
C       3.6453636      1.2243385      1.0587999
C       2.4906106      1.9327258      0.6876306
C       2.4114487      3.3058988      0.9005293
C       3.4719708      3.9915928      1.4991118
C       4.6251129      3.2963065      1.8651333
C       4.7143326      1.9254747      1.6329061
H       1.7239181     -6.2014891     -0.9633968
H       0.4366481     -5.0946107     -0.4060187
H       1.6836008     -5.1515659     -3.2232369
H       0.4983816     -3.9500681     -2.6674131
H       0.0346613     -5.6800733     -2.7919768
H      -0.1649529     -1.3398479     -1.7379716
H       4.0066189     -2.6840370      0.1849709
H       4.8050111     -0.6220282      0.8524036
H       1.6827233      1.3917699      0.1881701
H       1.5274347      3.8551585      0.5723853
H       3.4054066      5.0686064      1.6618837
H       5.4627676      3.8267341      2.3215080
H       5.6254882      1.3839563      1.8990008
H       0.4079994     -0.2693092      4.9783252
C       0.1444513     -0.0532574      3.9477155
H      -1.1164226      1.7856503      3.8672234
H       1.1834814     -2.6996139      2.1832090
C      -0.5963813      0.9507998      3.4077124
H       1.0968722     -2.5632076      3.9715373
C       1.3769774     -2.0535981      3.0434489
N       0.5469582     -0.8617214      2.9065788
H      -5.9823215     -0.0283478      3.2520032
H      -6.5092820     -2.4670064      3.1088758
C      -5.3984035     -0.6692142      2.5892793
C      -5.6982707     -2.0516838      2.5090580
N      -0.6309406      0.7281607      2.0434623
H       2.4342742     -1.7654868      3.0664546
C       0.0783839     -0.3733216      1.7617828
C      -4.3804398     -0.1273190      1.8385150
C      -4.9669394     -2.8633118      1.6734890
H      -0.3116996      3.3221482      1.8994807
H      -4.1590395      0.9398541      1.9049973
H      -5.1892371     -3.9303078      1.6011575
C      -1.3030587      1.5679966      1.0976887
C      -1.0195712      2.9555237      1.1555553
C      -3.6039160     -0.9442100      0.9683145
C      -3.9075704     -2.3355861      0.8877338
H       0.2971896     -0.7871727      0.7734121
C      -2.5320439     -0.4214799      0.1837103
C      -3.1344118     -3.1599189      0.0208903
C      -2.2006410      1.0309015      0.1984388
C      -1.6207314      3.8077539      0.2684622
H      -3.3723438     -4.2238242     -0.0414200
H      -1.4018521      4.8766086      0.2968663
C      -2.1041934     -2.6437642     -0.7183007
C      -1.7948790     -1.2573782     -0.6374513
C      -2.8276050      1.9169585     -0.7379039
C      -2.5286034      3.3108279     -0.7065615
O      -0.7952162     -0.7027175     -1.3350414
H      -1.4931794     -3.2768567     -1.3621102
C      -3.7497955      1.4367811     -1.7092997
C      -3.1489352      4.1769765     -1.6478629
H      -3.9831761      0.3716193     -1.7365941
H      -2.9085527      5.2414362     -1.6168342
C      -4.3353112      2.2989490     -2.6055488
C      -4.0312950      3.6830694     -2.5778154
H      -5.0376845      1.9159005     -3.3471286
H      -4.5012690      4.3542703     -3.2980532
H       1.1257601      1.1400203     -3.6403661
C       3.8730396      0.6266519     -2.0408124
C       4.5751129     -0.6088806     -1.8411236
C       2.3585985     -1.0745591     -2.3658965
C       1.4667627      1.2336709     -2.5980561
C       3.6629736     -1.6753873     -1.9276454
N       2.5015705      0.2727239     -2.3022903
O       1.3339721     -1.6685240     -2.6955577
O       4.2339875      1.7921739     -2.0548012
H       5.6486089     -0.6564900     -1.6817629
H       1.9009176      2.2291476     -2.4436265
H       3.8940173     -2.6909051     -2.2565019
H       0.6021025      1.0919131     -1.9343114
          85

O       0.7526443     -2.7930052     -0.1144382
C       1.9254093     -3.0854857     -0.2619215
O       2.3098067     -4.2849178     -0.7287358
C       1.2783476     -5.2066790     -1.1034064
C       0.8400405     -4.9869351     -2.5380082
C       3.0593829     -2.1879381     -0.0136040
N       2.7769792     -0.9556985      0.4789311
C       3.7906989     -0.2021473      0.7591115
C       3.6454673      1.2238874      1.0512963
C       2.4889194      1.9315978      0.6838482
C       2.4104511      3.3038155      0.9007189
C       3.4719947      3.9879627      1.4997668
C       4.6245780      3.2914054      1.8650079
C       4.7136521      1.9218889      1.6291689
H       1.7196315     -6.2019448     -0.9670946
H       0.4337574     -5.0933098     -0.4104561
H       1.6780890     -5.1560706     -3.2287826
H       0.4926485     -3.9541438     -2.6740127
H       0.0304236     -5.6851964     -2.7934662
H      -0.1645289     -1.3397021     -1.7296763
H       4.0149790     -2.6804952      0.2116948
H       4.8048361     -0.6222044      0.8549701
H       1.6803234      1.3916148      0.1847159
H       1.5262948      3.8544688      0.5753252
H       3.4060735      5.0646174      1.6649120
H       5.4620903      3.8203755      2.3233446
H       5.6239347      1.3784650      1.8941647
H       0.4095458     -0.2715718      4.9765309
C       0.1452893     -0.0548876      3.9462375
H      -1.1155463      1.7841511      3.8677682
H       1.1863144     -2.6975880      2.1771519
C      -0.5958420      0.9495775      3.4073689
H       1.0983242     -2.5658751      3.9658022
C       1.3785840     -2.0537521      3.0391656
N       0.5474132     -0.8624826      2.9043018
H      -5.9825001     -0.0293328      3.2536046
H      -6.5091038     -2.4680169      3.1099222
C      -5.3985969     -0.6699348      2.5906121
C      -5.6982665     -2.0524237      2.5100497
N      -0.6311394      0.7278930      2.0429781
H       2.4355252     -1.7643329      3.0636340
C       0.0783467     -0.3731553      1.7601847
C      -4.3808188     -0.1277645      1.8398039
C      -4.9670457     -2.8637597      1.6740727
H      -0.3111736      3.3217948      1.8988811
H      -4.1594592      0.9394065      1.9064515
H      -5.1893217     -3.9307414      1.6014901
C      -1.3035137      1.5680072      1.0977171
C      -1.0193577      2.9553695      1.1551676
C      -3.6045374     -0.9443285      0.9691814
C      -3.9079855     -2.3357036      0.8880691
H       0.2967386     -0.7865182      0.7715901
C      -2.5332082     -0.4210913      0.1843756
C      -3.1352602     -3.1594800      0.0202887
C      -2.2015488      1.0311156      0.1988557
C      -1.6202327      3.8075652      0.2678580
H      -3.3731179     -4.2233733     -0.0424679
H      -1.4008661      4.8763296      0.2958890
C      -2.1054258     -2.6427511     -0.7191002
C      -1.7964740     -1.2563846     -0.6372326
C      -2.8280526      1.9170105     -0.7378710
C      -2.5283971      3.3107319     -0.7069504
O      -0.7973628     -0.7004311     -1.3353956
H      -1.4942753     -3.2753608     -1.3632236
C      -3.7502863      1.4368631     -1.7092340
C      -3.1484114      4.1768487     -1.6484750
H      -3.9840741      0.3717839     -1.7362677
H      -2.9076507      5.2412305     -1.6177144
C      -4.3353834      2.2989948     -2.6057797
C      -4.0309108      3.6830196     -2.5783315
H      -5.0378029      1.9160069     -3.3473458
H      -4.5006217      4.3542140     -3.2987465
H       1.1161949      1.1489477     -3.6348215
C       3.8687906      0.6305313     -2.0482148
C       4.5772562     -0.6072015     -1.8459182
C       2.3617891     -1.0746318     -2.3668279
C       1.4630354      1.2373601     -2.5941821
C       3.6730408     -1.6702910     -1.9242541
N       2.5008745      0.2759842     -2.3080003
O       1.3373351     -1.6646936     -2.7029256
O       4.2312652      1.7931552     -2.0562581
H       5.6517814     -0.6490463     -1.6912349
H       1.8979414      2.2322161     -2.4373454
H       3.9032922     -2.6915971     -2.2319147
H       0.6024200      1.0923932     -1.9259673
          85

O       0.7470575     -2.7953919     -0.1222496
C       1.9202086     -3.0868421     -0.2716055
O       2.3058580     -4.2880178     -0.7340962
C       1.2752006     -5.2105253     -1.1066132
C       0.8367089     -4.9908061     -2.5411013
C       3.0530330     -2.1903172     -0.0281520
N       2.7749509     -0.9582159      0.4652586
C       3.7883162     -0.2051126      0.7496074
C       3.6434164      1.2202921      1.0469259
C       2.4871848      1.9298630      0.6816670
C       2.4097485      3.3019304      0.9002494
C       3.4719367      3.9848078      1.4995341
C       4.6238579      3.2866625      1.8639201
C       4.7118580      1.9172550      1.6263525
H       1.7168389     -6.2056109     -0.9700364
H       0.4307357     -5.0970877     -0.4134711
H       1.6747796     -5.1602992     -3.2317893
H       0.4900984     -3.9576503     -2.6767596
H       0.0265497     -5.6882350     -2.7970800
H      -0.1674159     -1.3389706     -1.7330347
H       4.0115872     -2.6812547      0.1870321
H       4.8028032     -0.6253521      0.8420804
H       1.6779857      1.3914566      0.1817599
H       1.5258434      3.8534360      0.5756060
H       3.4070211      5.0613862      1.6655576
H       5.4619166      3.8143182      2.3227998
H       5.6219756      1.3731467      1.8905645
H       0.4097916     -0.2727722      4.9757698
C       0.1453403     -0.0558036      3.9455840
H      -1.1154406      1.7833502      3.8677996
H       1.1861598     -2.6968362      2.1730314
C      -0.5958443      0.9488738      3.4070923
H       1.0989346     -2.5680691      3.9621498
C       1.3786001     -2.0543911      3.0362014
N       0.5471666     -0.8630925      2.9032473
H      -5.9828684     -0.0298588      3.2539968
H      -6.5093141     -2.4685529      3.1101504
C      -5.3989341     -0.6703733      2.5909460
C      -5.6985269     -2.0528633      2.5102772
N      -0.6313877      0.7275868      2.0426606
H       2.4355429     -1.7647897      3.0606756
C       0.0778390     -0.3734908      1.7593817
C      -4.3811758     -0.1280880      1.8401963
C      -4.9673274     -2.8640822      1.6741585
H      -0.3109629      3.3214584      1.8985849
H      -4.1598308      0.9390839      1.9069363
H      -5.1896107     -3.9310577      1.6014123
C      -1.3037582      1.5678628      1.0975991
C      -1.0192468      2.9551536      1.1549132
C      -3.6049690     -0.9445245      0.9694309
C      -3.9084482     -2.3358870      0.8880723
H       0.2960160     -0.7867536      0.7705400
C      -2.5338560     -0.4211816      0.1844883
C      -3.1361629     -3.1594812      0.0197119
C      -2.2019693      1.0309995      0.1989122
C      -1.6199837      3.8074011      0.2675636
H      -3.3741179     -4.2233433     -0.0431905
H      -1.4004058      4.8761255      0.2954705
C      -2.1067388     -2.6426201     -0.7200747
C      -1.7976213     -1.2562753     -0.6377777
C      -2.8282390      1.9169568     -0.7378985
C      -2.5283015      3.3106249     -0.7071371
O      -0.7990104     -0.7000327     -1.3359940
H      -1.4958025     -3.2750018     -1.3645573
C      -3.7505113      1.4368463     -1.7092250
C      -3.1481933      4.1767391     -1.6487421
H      -3.9844564      0.3717994     -1.7361058
H      -2.9072836      5.2410913     -1.6180914
C      -4.3354240      2.2989597     -2.6058991
C      -4.0307390      3.6829389     -2.5785727
H      -5.0378728      1.9160041     -3.3474545
H      -4.5003316      4.3541329     -3.2990663
H       1.1086566      1.1534597     -3.6362843
C       3.8628679      0.6278340     -2.0583312
C       4.5720759     -0.6129316     -1.8697850
C       2.3534404     -1.0745445     -2.3798790
C       1.4572437      1.2392733     -2.5960098
C       3.6670646     -1.6721298     -1.9540056
N       2.4944275      0.2759406     -2.3144196
O       1.3264334     -1.6628203     -2.7108029
O       4.2277976      1.7895095     -2.0599857
H       5.6468452     -0.6567990     -1.7173743
H       1.8933542      2.2333234     -2.4376053
H       3.8924402     -2.6962822     -2.2545114
H       0.5976727      1.0936098     -1.9266777
          85

O       0.7418143     -2.7977667     -0.1300002
C       1.9151801     -3.0882115     -0.2817347
O       2.3018772     -4.2912060     -0.7395080
C       1.2720224     -5.2146295     -1.1098112
C       0.8334214     -4.9947192     -2.5441641
C       3.0473612     -2.1919542     -0.0445032
N       2.7727931     -0.9601906      0.4509691
C       3.7857265     -0.2079183      0.7400413
C       3.6411762      1.2167457      1.0428866
C       2.4852951      1.9280872      0.6797157
C       2.4089886      3.3000250      0.8998063
C       3.4719364      3.9816350      1.4991160
C       4.6231435      3.2818976      1.8627710
C       4.7099133      1.9125334      1.6238294
H       1.7142081     -6.2094522     -0.9730589
H       0.4277428     -5.1012630     -0.4163857
H       1.6716213     -5.1643029     -3.2346999
H       0.4875301     -3.9611950     -2.6792936
H       0.0228265     -5.6913303     -2.8009360
H      -0.1702006     -1.3379908     -1.7364764
H       4.0081527     -2.6817214      0.1628122
H       4.8005459     -0.6283612      0.8291062
H       1.6755592      1.3912203      0.1789791
H       1.5254028      3.8524217      0.5758107
H       3.4081482      5.0581895      1.6657285
H       5.4618389      3.8082843      2.3219648
H       5.6198357      1.3676959      1.8872512
H       0.4099085     -0.2738918      4.9750928
C       0.1452950     -0.0566716      3.9449993
H      -1.1153469      1.7826571      3.8678051
H       1.1858793     -2.6960847      2.1689542
C      -0.5958868      0.9482373      3.4068300
H       1.0995985     -2.5702910      3.9585080
C       1.3785557     -2.0550089      3.0332461
N       0.5468048     -0.8637119      2.9022886
H      -5.9832491     -0.0304817      3.2544147
H      -6.5094785     -2.4692014      3.1103986
C      -5.3992537     -0.6708952      2.5913188
C      -5.6987407     -2.0533936      2.5105412
N      -0.6316627      0.7272969      2.0423666
H       2.4354975     -1.7652003      3.0576482
C       0.0772658     -0.3738312      1.7586574
C      -4.3815213     -0.1284590      1.8406398
C      -4.9675358     -2.8644621      1.6742767
H      -0.3105839      3.3210605      1.8981664
H      -4.1602398      0.9387245      1.9074696
H      -5.1897848     -3.9314353      1.6013616
C      -1.3039558      1.5677059      1.0974315
C      -1.0190148      2.9549061      1.1545674
C      -3.6053524     -0.9447383      0.9697303
C      -3.9088494     -2.3360909      0.8881178
H       0.2953042     -0.7869173      0.7695586
C      -2.5344894     -0.4212880      0.1846110
C      -3.1370846     -3.1594797      0.0190918
C      -2.2023636      1.0308708      0.1989442
C      -1.6196346      3.8072292      0.2672155
H      -3.3752356     -4.2232877     -0.0440496
H      -1.3997990      4.8759049      0.2949843
C      -2.1080768     -2.6424909     -0.7211126
C      -1.7987346     -1.2561801     -0.6383100
C      -2.8284110      1.9169130     -0.7379214
C      -2.5281758      3.3105293     -0.7073282
O      -0.8006167     -0.6995759     -1.3364928
H      -1.4974510     -3.2746380     -1.3660545
C      -3.7507547      1.4368317     -1.7091735
C      -3.1479443      4.1766182     -1.6490392
H      -3.9848826      0.3718215     -1.7358517
H      -2.9068786      5.2409402     -1.6185361
C      -4.3354505      2.2988979     -2.6060213
C      -4.0305033      3.6828206     -2.5788658
H      -5.0379296      1.9159637     -3.3475592
H      -4.4999289      4.3539967     -3.2994860
H       1.1013273      1.1579275     -3.6378317
C       3.8573098      0.6248400     -2.0686007
C       4.5669495     -0.6186009     -1.8941689
C       2.3447588     -1.0744572     -2.3925614
C       1.4515952      1.2411408     -2.5979024
C       3.6604412     -1.6743513     -1.9819231
N       2.4879217      0.2756797     -2.3207081
O       1.3151349     -1.6607763     -2.7186016
O       4.2243273      1.7857630     -2.0634982
H       5.6419638     -0.6646238     -1.7441501
H       1.8891584      2.2342837     -2.4379749
H       3.8811730     -2.7007876     -2.2772090
H       0.5929600      1.0950394     -1.9275299
          85

O       0.7366380     -2.8001783     -0.1375526
C       1.9100407     -3.0891895     -0.2929498
O       2.2976855     -4.2941889     -0.7448985
C       1.2690033     -5.2190936     -1.1126907
C       0.8305874     -4.9983647     -2.5468413
C       3.0426200     -2.1926728     -0.0631646
N       2.7704834     -0.9614553      0.4357948
C       3.7830721     -0.2109649      0.7308997
C       3.6385949      1.2127639      1.0399437
C       2.4834198      1.9262368      0.6782467
C       2.4083441      3.2981907      0.8994211
C       3.4719467      3.9788722      1.4985656
C       4.6223765      3.2773741      1.8612880
C       4.7075975      1.9078282      1.6218044
H       1.7123923     -6.2133856     -0.9759959
H       0.4249822     -5.1063538     -0.4187973
H       1.6692898     -5.1674878     -3.2368953
H       0.4855291     -3.9643509     -2.6808319
H       0.0196388     -5.6939184     -2.8052635
H      -0.1723428     -1.3368454     -1.7396963
H       4.0051151     -2.6817659      0.1362986
H       4.7980617     -0.6319159      0.8167668
H       1.6731398      1.3911782      0.1763925
H       1.5251160      3.8513043      0.5756739
H       3.4093791      5.0554539      1.6654905
H       5.4621015      3.8024433      2.3201308
H       5.6175298      1.3625739      1.8843801
H       0.4098128     -0.2746861      4.9746429
C       0.1450810     -0.0573547      3.9446001
H      -1.1152537      1.7822657      3.8677287
H       1.1852723     -2.6953196      2.1649769
C      -0.5959926      0.9477983      3.4066017
H       1.1003970     -2.5725710      3.9549652
C       1.3783722     -2.0556135      3.0303546
N       0.5462285     -0.8643282      2.9016063
H      -5.9837218     -0.0312390      3.2547953
H      -6.5096770     -2.4700076      3.1105308
C      -5.3995517     -0.6715420      2.5917437
C      -5.6989060     -2.0540538      2.5108203
N      -0.6319911      0.7270256      2.0421340
H       2.4353198     -1.7655765      3.0544544
C       0.0766129     -0.3741770      1.7581519
C      -4.3818879     -0.1288679      1.8411046
C      -4.9676252     -2.8648867      1.6744054
H      -0.3098838      3.3204431      1.8975718
H      -4.1609120      0.9383885      1.9078960
H      -5.1898719     -3.9318383      1.6011348
C      -1.3040651      1.5674803      1.0971507
C      -1.0185937      2.9545586      1.1541120
C      -3.6055561     -0.9449346      0.9701390
C      -3.9090796     -2.3362789      0.8882993
H       0.2947030     -0.7869598      0.7687870
C      -2.5350607     -0.4214233      0.1846244
C      -3.1380823     -3.1594646      0.0184201
C      -2.2026365      1.0307100      0.1988097
C      -1.6191248      3.8070839      0.2668906
H      -3.3766350     -4.2231659     -0.0450717
H      -1.3988856      4.8756818      0.2945452
C      -2.1094232     -2.6424501     -0.7221737
C      -1.7997192     -1.2561924     -0.6388521
C      -2.8285461      1.9169487     -0.7379585
C      -2.5280435      3.3105400     -0.7074344
O      -0.8020188     -0.6991972     -1.3368054
H      -1.4992208     -3.2744376     -1.3676092
C      -3.7510334      1.4368357     -1.7090524
C      -3.1477035      4.1764994     -1.6493549
H      -3.9853199      0.3718545     -1.7354253
H      -2.9065119      5.2408027     -1.6191356
C      -4.3354972      2.2987615     -2.6061605
C      -4.0301727      3.6826008     -2.5792433
H      -5.0380005      1.9158273     -3.3476759
H      -4.4992955      4.3537207     -3.3001152
H       1.0947626      1.1617800     -3.6398066
C       3.8523505      0.6214000     -2.0786481
C       4.5623813     -0.6239073     -1.9186870
C       2.3357439     -1.0742837     -2.4052321
C       1.4460243      1.2429435     -2.6000350
C       3.6537060     -1.6767796     -2.0081023
N       2.4811005      0.2751778     -2.3260870
O       1.3032241     -1.6587004     -2.7260312
O       4.2212285      1.7816654     -2.0663568
H       5.6376669     -0.6722663     -1.7712868
H       1.8853470      2.2351222     -2.4389521
H       3.8705053     -2.7048084     -2.3000832
H       0.5878158      1.0971473     -1.9290991
          85

O       0.7303718     -2.8019047     -0.1431346
C       1.9035421     -3.0891287     -0.3051889
O       2.2947228     -4.2960422     -0.7486506
C       1.2677985     -5.2220022     -1.1138580
C       0.8295356     -5.0001611     -2.5478661
C       3.0358950     -2.1929281     -0.0918355
N       2.7690790     -0.9664803      0.4248732
C       3.7800294     -0.2151342      0.7258221
C       3.6366850      1.2100575      1.0387332
C       2.4824967      1.9255225      0.6773717
C       2.4079429      3.2977348      0.8990132
C       3.4717490      3.9777411      1.4983356
C       4.6220372      3.2754361      1.8602089
C       4.7063290      1.9055898      1.6204317
H       1.7116991     -6.2160372     -0.9766213
H       0.4236095     -5.1091231     -0.4201255
H       1.6683149     -5.1688738     -3.2378884
H       0.4854832     -3.9656072     -2.6807174
H       0.0179479     -5.6944519     -2.8076550
H      -0.1756657     -1.3370985     -1.7454939
H       3.9984742     -2.6843355      0.1030358
H       4.7964016     -0.6342281      0.8057379
H       1.6718688      1.3913336      0.1750539
H       1.5251173      3.8514015      0.5751686
H       3.4093998      5.0542269      1.6661086
H       5.4622978      3.7999608      2.3186900
H       5.6163421      1.3604258      1.8829883
H       0.4094874     -0.2748216      4.9745470
C       0.1447782     -0.0575379      3.9444947
H      -1.1153997      1.7820267      3.8678167
H       1.1839684     -2.6953045      2.1629407
C      -0.5962099      0.9476595      3.4064530
H       1.1006134     -2.5736616      3.9532834
C       1.3778779     -2.0561345      3.0287454
N       0.5456969     -0.8646945      2.9014362
H      -5.9842935     -0.0317080      3.2548762
H      -6.5099265     -2.4707100      3.1100517
C      -5.3997926     -0.6719039      2.5919800
C      -5.6990388     -2.0544164      2.5107626
N      -0.6321680      0.7267990      2.0420745
H       2.4349384     -1.7663295      3.0519383
C       0.0760956     -0.3746017      1.7580221
C      -4.3822727     -0.1290678      1.8412370
C      -4.9677523     -2.8651691      1.6743611
H      -0.3093838      3.3200391      1.8971512
H      -4.1618356      0.9383473      1.9076931
H      -5.1901436     -3.9321147      1.6009339
C      -1.3040603      1.5671557      1.0970429
C      -1.0183846      2.9542622      1.1538525
C      -3.6055940     -0.9450672      0.9704032
C      -3.9092223     -2.3364107      0.8884029
H       0.2943253     -0.7873914      0.7685704
C      -2.5353867     -0.4215088      0.1843725
C      -3.1387646     -3.1594594      0.0179451
C      -2.2026760      1.0305683      0.1986167
C      -1.6187898      3.8071658      0.2668435
H      -3.3777742     -4.2230079     -0.0459071
H      -1.3980582      4.8756424      0.2944061
C      -2.1102463     -2.6425488     -0.7226989
C      -1.8003504     -1.2563227     -0.6394555
C      -2.8285984      1.9170450     -0.7380399
C      -2.5280185      3.3107192     -0.7073726
O      -0.8025786     -0.6999541     -1.3371120
H      -1.5002848     -3.2744290     -1.3683474
C      -3.7512855      1.4367511     -1.7090211
C      -3.1476311      4.1763970     -1.6495265
H      -3.9855724      0.3717680     -1.7354113
H      -2.9064024      5.2406885     -1.6195010
C      -4.3355503      2.2986323     -2.6062727
C      -4.0300164      3.6823678     -2.5794203
H      -5.0381388      1.9159341     -3.3478165
H      -4.4987150      4.3535521     -3.3004764
H       1.0923926      1.1610767     -3.6429191
C       3.8481442      0.6183176     -2.0838396
C       4.5565599     -0.6295579     -1.9367399
C       2.3279504     -1.0743939     -2.4164402
C       1.4425589      1.2427547     -2.6027511
C       3.6458994     -1.6793511     -2.0408031
N       2.4763129      0.2741053     -2.3288018
O       1.2932800     -1.6588320     -2.7296350
O       4.2196177      1.7782684     -2.0694742
H       5.6314368     -0.6816205     -1.7881535
H       1.8816274      2.2349268     -2.4416228
H       3.8582672     -2.7084321     -2.3314531
H       0.5835880      1.0971157     -1.9328898
          85

O       0.7235580     -2.8041121     -0.1484530
C       1.8964528     -3.0896918     -0.3168836
O       2.2913516     -4.2980234     -0.7521627
C       1.2662979     -5.2248353     -1.1148763
C       0.8285471     -5.0018768     -2.5485977
C       3.0293230     -2.1935378     -0.1200713
N       2.7678446     -0.9706555      0.4132861
C       3.7774805     -0.2188339      0.7199833
C       3.6354731      1.2073838      1.0373056
C       2.4820770      1.9246372      0.6767304
C       2.4078888      3.2969499      0.8984144
C       3.4715439      3.9765207      1.4981932
C       4.6216471      3.2735853      1.8595924
C       4.7056473      1.9034641      1.6189624
H       1.7103291     -6.2187162     -0.9779488
H       0.4221711     -5.1121541     -0.4210124
H       1.6675277     -5.1714875     -3.2382658
H       0.4855855     -3.9669163     -2.6812254
H       0.0162503     -5.6949218     -2.8093568
H      -0.1778641     -1.3369807     -1.7507300
H       3.9919231     -2.6872577      0.0686458
H       4.7952689     -0.6364019      0.7943584
H       1.6711758      1.3913333      0.1737078
H       1.5249950      3.8504332      0.5743409
H       3.4096365      5.0530639      1.6656956
H       5.4620003      3.7976042      2.3185420
H       5.6158693      1.3584561      1.8813087
H       0.4093544     -0.2752577      4.9744638
C       0.1447391     -0.0578293      3.9444090
H      -1.1157179      1.7817652      3.8674168
H       1.1828051     -2.6955150      2.1621849
C      -0.5963292      0.9473449      3.4063377
H       1.1003489     -2.5742840      3.9527878
C       1.3772511     -2.0566615      3.0282328
N       0.5456339     -0.8648203      2.9012641
H      -5.9842567     -0.0314589      3.2544788
H      -6.5101965     -2.4701945      3.1102046
C      -5.4000534     -0.6717568      2.5914490
C      -5.6994095     -2.0542472      2.5105162
N      -0.6322468      0.7266327      2.0418767
H       2.4344564     -1.7673375      3.0510759
C       0.0757821     -0.3749612      1.7577876
C      -4.3823263     -0.1290500      1.8409116
C      -4.9681241     -2.8650860      1.6741051
H      -0.3100160      3.3201746      1.8975725
H      -4.1613223      0.9382032      1.9077721
H      -5.1903672     -3.9320402      1.6007809
C      -1.3042195      1.5672404      1.0970049
C      -1.0186658      2.9543328      1.1540371
C      -3.6060027     -0.9451197      0.9699467
C      -3.9096855     -2.3364547      0.8880522
H       0.2934563     -0.7883548      0.7682543
C      -2.5354527     -0.4217496      0.1843282
C      -3.1390401     -3.1597296      0.0179211
C      -2.2028154      1.0304453      0.1986810
C      -1.6191426      3.8069626      0.2668693
H      -3.3777914     -4.2233971     -0.0455098
H      -1.3988996      4.8755598      0.2945901
C      -2.1108239     -2.6428935     -0.7231261
C      -1.8006898     -1.2566604     -0.6399299
C      -2.8286122      1.9168698     -0.7380127
C      -2.5280698      3.3104624     -0.7074743
O      -0.8032619     -0.7007314     -1.3378160
H      -1.5009203     -3.2747683     -1.3688357
C      -3.7511025      1.4367748     -1.7091020
C      -3.1477225      4.1764329     -1.6493940
H      -3.9853645      0.3717902     -1.7353956
H      -2.9065446      5.2407411     -1.6191766
C      -4.3355459      2.2986957     -2.6062199
C      -4.0301902      3.6825288     -2.5792894
H      -5.0380669      1.9157818     -3.3477311
H      -4.4993129      4.3536586     -3.3001539
H       1.0895749      1.1612318     -3.6461810
C       3.8438575      0.6150637     -2.0890753
C       4.5509400     -0.6350052     -1.9554255
C       2.3203322     -1.0744236     -2.4278596
C       1.4390026      1.2426471     -2.6057389
C       3.6385355     -1.6824689     -2.0736772
N       2.4714240      0.2730131     -2.3320269
O       1.2837048     -1.6591010     -2.7332561
O       4.2176953      1.7748383     -2.0723696
H       5.6256209     -0.6903636     -1.8065449
H       1.8783404      2.2345427     -2.4438874
H       3.8468121     -2.7132441     -2.3597363
H       0.5796593      1.0970461     -1.9364009
          85

O       0.7181964     -2.8071060     -0.1553324
C       1.8914060     -3.0905405     -0.3266469
O       2.2866833     -4.3010842     -0.7567313
C       1.2624911     -5.2292661     -1.1174199
C       0.8253394     -5.0058864     -2.5511863
C       3.0234575     -2.1941832     -0.1349224
N       2.7660502     -0.9713680      0.3972485
C       3.7759784     -0.2217517      0.7089976
C       3.6342538      1.2032515      1.0332739
C       2.4811054      1.9222699      0.6749905
C       2.4076930      3.2944910      0.8979120
C       3.4716953      3.9733468      1.4978579
C       4.6209455      3.2687795      1.8588163
C       4.7042308      1.8986730      1.6166783
H       1.7076139     -6.2226556     -0.9803734
H       0.4184173     -5.1171739     -0.4233488
H       1.6648219     -5.1759986     -3.2401253
H       0.4840401     -3.9702547     -2.6833288
H       0.0122508     -5.6974172     -2.8134163
H      -0.1799747     -1.3358973     -1.7538618
H       3.9881351     -2.6864949      0.0460267
H       4.7935477     -0.6404878      0.7808503
H       1.6697955      1.3905850      0.1709088
H       1.5249702      3.8484186      0.5740975
H       3.4107409      5.0498783      1.6658046
H       5.4618568      3.7915367      2.3182149
H       5.6146656      1.3535377      1.8780819
H       0.4096186     -0.2758807      4.9740254
C       0.1449158     -0.0583201      3.9440198
H      -1.1156748      1.7811996      3.8673631
H       1.1827609     -2.6953361      2.1600965
C      -0.5962598      0.9468836      3.4061177
H       1.0999833     -2.5757060      3.9509101
C       1.3770948     -2.0572399      3.0268970
N       0.5457240     -0.8651225      2.9006739
H      -5.9844697     -0.0306946      3.2536710
H      -6.5108612     -2.4693594      3.1097981
C      -5.4004119     -0.6712141      2.5907262
C      -5.7000230     -2.0536469      2.5100148
N      -0.6322769      0.7264137      2.0416515
H       2.4344360     -1.7681587      3.0504145
C       0.0757354     -0.3751369      1.7572764
C      -4.3824447     -0.1288809      1.8402803
C      -4.9688169     -2.8647806      1.6737911
H      -0.3110117      3.3202635      1.8982418
H      -4.1610403      0.9382849      1.9071598
H      -5.1911805     -3.9317319      1.6007528
C      -1.3044809      1.5671170      1.0970292
C      -1.0193420      2.9543079      1.1544576
C      -3.6063416     -0.9452250      0.9694696
C      -3.9102731     -2.3365066      0.8876795
H       0.2933798     -0.7883407      0.7675048
C      -2.5355935     -0.4220770      0.1841593
C      -3.1395178     -3.1600273      0.0178500
C      -2.2028479      1.0301417      0.1985670
C      -1.6197815      3.8068668      0.2672202
H      -3.3781376     -4.2237549     -0.0451593
H      -1.3999417      4.8755380      0.2951724
C      -2.1115900     -2.6432715     -0.7236318
C      -1.8013401     -1.2569573     -0.6405258
C      -2.8285894      1.9166227     -0.7381300
C      -2.5282723      3.3102481     -0.7074220
O      -0.8047925     -0.7004075     -1.3387465
H      -1.5016936     -3.2752135     -1.3692013
C      -3.7509180      1.4366814     -1.7094077
C      -3.1480226      4.1764348     -1.6490595
H      -3.9849882      0.3716633     -1.7360449
H      -2.9069643      5.2407593     -1.6184659
C      -4.3355910      2.2988121     -2.6061911
C      -4.0306031      3.6827186     -2.5789196
H      -5.0380975      1.9159573     -3.3477467
H      -4.5000420      4.3539678     -3.2994672
H       1.0823775      1.1660989     -3.6480044
C       3.8383702      0.6116671     -2.1001251
C       4.5463771     -0.6403645     -1.9812046
C       2.3122161     -1.0747104     -2.4409627
C       1.4333262      1.2444853     -2.6078376
C       3.6327886     -1.6840019     -2.1001947
N       2.4648044      0.2723848     -2.3386452
O       1.2728443     -1.6573100     -2.7412847
O       4.2140086      1.7703042     -2.0747868
H       5.6214897     -0.6975134     -1.8360727
H       1.8746403      2.2352012     -2.4442551
H       3.8371581     -2.7159995     -2.3844301
H       0.5747699      1.0987918     -1.9375657
          85

O       0.7127916     -2.8093806     -0.1627652
C       1.8864543     -3.0919005     -0.3350401
O       2.2825546     -4.3041014     -0.7615910
C       1.2588692     -5.2328651     -1.1203618
C       0.8216258     -5.0101754     -2.5542028
C       3.0170332     -2.1965269     -0.1460204
N       2.7639771     -0.9730353      0.3835059
C       3.7742857     -0.2244638      0.6982401
C       3.6330262      1.1993946      1.0278342
C       2.4799096      1.9199951      0.6722580
C       2.4072473      3.2918957      0.8974487
C       3.4717967      3.9694729      1.4978472
C       4.6203637      3.2633273      1.8579844
C       4.7029424      1.8935077      1.6135067
H       1.7041829     -6.2261215     -0.9827706
H       0.4148340     -5.1204571     -0.4262466
H       1.6610873     -5.1811948     -3.2429838
H       0.4812091     -3.9742241     -2.6865839
H       0.0079028     -5.7009081     -2.8165592
H      -0.1826790     -1.3354132     -1.7568055
H       3.9847127     -2.6864842      0.0238995
H       4.7916996     -0.6441613      0.7678780
H       1.6680752      1.3898664      0.1673794
H       1.5246273      3.8466122      0.5746786
H       3.4116875      5.0458573      1.6670246
H       5.4616043      3.7847055      2.3183787
H       5.6132103      1.3476718      1.8740767
H       0.4100405     -0.2767529      4.9733948
C       0.1451767     -0.0589939      3.9434709
H      -1.1155615      1.7804691      3.8673552
H       1.1829584     -2.6946719      2.1568397
C      -0.5961371      0.9462941      3.4058583
H       1.1002201     -2.5775409      3.9479817
C       1.3772296     -2.0577688      3.0246762
N       0.5458163     -0.8655272      2.8998216
H      -5.9849879     -0.0300911      3.2529715
H      -6.5116825     -2.4686834      3.1092858
C      -5.4009098     -0.6707707      2.5901991
C      -5.7006911     -2.0531594      2.5095781
N      -0.6323395      0.7261359      2.0413605
H       2.4346156     -1.7686676      3.0486425
C       0.0756172     -0.3753525      1.7565963
C      -4.3827338     -0.1287024      1.8398737
C      -4.9694987     -2.8645247      1.6735406
H      -0.3117372      3.3201038      1.8987525
H      -4.1611386      0.9384304      1.9066346
H      -5.1920587     -3.9314438      1.6005946
C      -1.3047375      1.5669268      1.0969872
C      -1.0198691      2.9541635      1.1547738
C      -3.6067059     -0.9452783      0.9692882
C      -3.9108123     -2.3365201      0.8874909
H       0.2930779     -0.7884971      0.7666083
C      -2.5359668     -0.4222567      0.1840180
C      -3.1401944     -3.1601328      0.0175925
C      -2.2029819      1.0299179      0.1984158
C      -1.6203157      3.8067776      0.2676086
H      -3.3788325     -4.2238696     -0.0452685
H      -1.4007409      4.8754954      0.2958252
C      -2.1125522     -2.6434169     -0.7242606
C      -1.8022606     -1.2570545     -0.6411500
C      -2.8286282      1.9164784     -0.7382674
C      -2.5285180      3.3101398     -0.7072854
O      -0.8063989     -0.7001175     -1.3397046
H      -1.5027139     -3.2753191     -1.3698464
C      -3.7508144      1.4366008     -1.7097013
C      -3.1483682      4.1764407     -1.6487403
H      -3.9846776      0.3715445     -1.7365875
H      -2.9074725      5.2407951     -1.6178927
C      -4.3356813      2.2988580     -2.6062373
C      -4.0309503      3.6828139     -2.5786404
H      -5.0381519      1.9160627     -3.3478583
H      -4.5005710      4.3541620     -3.2989781
H       1.0741173      1.1712995     -3.6489757
C       3.8320729      0.6090404     -2.1110665
C       4.5411285     -0.6455935     -2.0060937
C       2.3044266     -1.0749011     -2.4543417
C       1.4273959      1.2463693     -2.6093645
C       3.6275088     -1.6852908     -2.1301269
N       2.4585337      0.2722207     -2.3458724
O       1.2628706     -1.6555457     -2.7501657
O       4.2103050      1.7662730     -2.0783058
H       5.6166439     -0.7042086     -1.8644600
H       1.8700653      2.2361375     -2.4438459
H       3.8275504     -2.7198993     -2.4069585
H       0.5703110      1.0995794     -1.9375295
          85

O       0.7069199     -2.8115717     -0.1702755
C       1.8812344     -3.0933088     -0.3429046
O       2.2784715     -4.3070746     -0.7662421
C       1.2554222     -5.2362181     -1.1232993
C       0.8180503     -5.0142056     -2.5571952
C       3.0101819     -2.1996411     -0.1557526
N       2.7621337     -0.9754740      0.3712105
C       3.7726344     -0.2272039      0.6884405
C       3.6317765      1.1957613      1.0223963
C       2.4787447      1.9180207      0.6693795
C       2.4067786      3.2895876      0.8969888
C       3.4717713      3.9658491      1.4980577
C       4.6198231      3.2582178      1.8570473
C       4.7017609      1.8887451      1.6100309
H       1.7007319     -6.2294370     -0.9851622
H       0.4113123     -5.1234713     -0.4292704
H       1.6574179     -5.1861316     -3.2458949
H       0.4784912     -3.9779488     -2.6898040
H       0.0036767     -5.7041698     -2.8195688
H      -0.1852359     -1.3353596     -1.7591206
H       3.9811482     -2.6869575      0.0006477
H       4.7901195     -0.6473853      0.7557405
H       1.6663241      1.3894353      0.1638068
H       1.5242240      3.8450940      0.5753657
H       3.4123294      5.0420204      1.6688031
H       5.4613625      3.7782303      2.3184784
H       5.6118753      1.3422252      1.8697596
H       0.4105371     -0.2777171      4.9726740
C       0.1454636     -0.0597386      3.9428489
H      -1.1154116      1.7796850      3.8673616
H       1.1831085     -2.6939042      2.1532186
C      -0.5960077      0.9456514      3.4055798
H       1.1006542     -2.5794154      3.9447514
C       1.3774260     -2.0582958      3.0221390
N       0.5458789     -0.8659797      2.8988560
H      -5.9855789     -0.0296902      3.2524706
H      -6.5124672     -2.4682260      3.1088671
C      -5.4014514     -0.6704721      2.5898401
C      -5.7013430     -2.0528247      2.5092534
N      -0.6324524      0.7258299      2.0410433
H       2.4348284     -1.7690932      3.0463514
C       0.0753972     -0.3756180      1.7558454
C      -4.3830916     -0.1285757      1.8396540
C      -4.9701285     -2.8643407      1.6733603
H      -0.3122538      3.3199008      1.8990968
H      -4.1613648      0.9385346      1.9063503
H      -5.1928288     -3.9312347      1.6004402
C      -1.3049933      1.5667507      1.0969320
C      -1.0202691      2.9540076      1.1549865
C      -3.6071186     -0.9452965      0.9692208
C      -3.9113592     -2.3365057      0.8873752
H       0.2925833     -0.7887976      0.7656614
C      -2.5364289     -0.4223639      0.1839199
C      -3.1409779     -3.1601657      0.0172840
C      -2.2031923      1.0297570      0.1983071
C      -1.6207368      3.8066959      0.2679134
H      -3.3796866     -4.2238947     -0.0455026
H      -1.4013408      4.8754444      0.2963459
C      -2.1136640     -2.6434722     -0.7249473
C      -1.8032831     -1.2570933     -0.6417398
C      -2.8287230      1.9163942     -0.7383688
C      -2.5287510      3.3100768     -0.7071663
O      -0.8080032     -0.6999904     -1.3406625
H      -1.5039204     -3.2752838     -1.3706292
C      -3.7507762      1.4365488     -1.7099354
C      -3.1486755      4.1764533     -1.6484960
H      -3.9844757      0.3714623     -1.7369909
H      -2.9079206      5.2408350     -1.6174612
C      -4.3357599      2.2988848     -2.6063140
C      -4.0312216      3.6828777     -2.5784567
H      -5.0381796      1.9161312     -3.3480055
H      -4.5009584      4.3542983     -3.2986522
H       1.0662032      1.1757389     -3.6497929
C       3.8255431      0.6067832     -2.1214669
C       4.5359491     -0.6506085     -2.0306314
C       2.2971287     -1.0752294     -2.4678535
C       1.4215201      1.2479055     -2.6106848
C       3.6231422     -1.6862082     -2.1630353
N       2.4525192      0.2720849     -2.3524643
O       1.2533781     -1.6539477     -2.7585738
O       4.2068099      1.7623966     -2.0821112
H       5.6117703     -0.7102925     -1.8916063
H       1.8651026      2.2369330     -2.4433719
H       3.8190592     -2.7237706     -2.4302630
H       0.5658159      1.0998340     -1.9374718
          85

O       0.7072590     -2.8109558     -0.1732571
C       1.8843072     -3.0951081     -0.3299947
O       2.2781190     -4.3080431     -0.7662500
C       1.2528691     -5.2348307     -1.1259502
C       0.8143567     -5.0167032     -2.5603949
C       3.0067942     -2.2085190     -0.1064437
N       2.7625323     -0.9743021      0.3765307
C       3.7758777     -0.2246089      0.6847215
C       3.6332485      1.1953139      1.0149876
C       2.4784255      1.9169296      0.6654347
C       2.4063917      3.2875001      0.8972299
C       3.4717449      3.9626213      1.4994056
C       4.6197818      3.2542488      1.8570076
C       4.7023847      1.8861586      1.6058792
H       1.6962725     -6.2289883     -0.9868969
H       0.4082488     -5.1208151     -0.4326940
H       1.6529690     -5.1899502     -3.2497193
H       0.4738439     -3.9810489     -2.6951472
H       0.0002525     -5.7082038     -2.8197967
H      -0.1844722     -1.3372234     -1.7505491
H       3.9881876     -2.6840863      0.0227445
H       4.7912258     -0.6480310      0.7590076
H       1.6653819      1.3890580      0.1602802
H       1.5233314      3.8438713      0.5783919
H       3.4121077      5.0382733      1.6732448
H       5.4608485      3.7731149      2.3206815
H       5.6119205      1.3382735      1.8646660
H       0.4122042     -0.2790322      4.9713270
C       0.1465100     -0.0606935      3.9417390
H      -1.1146055      1.7786171      3.8677011
H       1.1856012     -2.6921561      2.1489240
C      -0.5953559      0.9448381      3.4052858
H       1.1018080     -2.5810798      3.9408054
C       1.3789525     -2.0582486      3.0192564
N       0.5466799     -0.8663157      2.8972189
H      -5.9862301     -0.0289483      3.2522319
H      -6.5133509     -2.4674113      3.1086114
C      -5.4020388     -0.6698278      2.5897531
C      -5.7020488     -2.0521406      2.5091411
N      -0.6324125      0.7256116      2.0406458
H       2.4361035     -1.7680963      3.0446681
C       0.0757228     -0.3754643      1.7546789
C      -4.3834609     -0.1281531      1.8397151
C      -4.9707863     -2.8638415      1.6734358
H      -0.3128512      3.3198058      1.8995432
H      -4.1615558      0.9389234      1.9063152
H      -5.1936681     -3.9307005      1.6005719
C      -1.3053193      1.5667159      1.0970240
C      -1.0208292      2.9539847      1.1553687
C      -3.6076110     -0.9450331      0.9694294
C      -3.9118652     -2.3362074      0.8874957
H       0.2923655     -0.7888251      0.7644815
C      -2.5370537     -0.4220517      0.1841043
C      -3.1415943     -3.1598318      0.0172340
C      -2.2035535      1.0298881      0.1983607
C      -1.6214157      3.8067164      0.2684228
H      -3.3802347     -4.2235759     -0.0455175
H      -1.4022600      4.8755073      0.2971262
C      -2.1144225     -2.6430022     -0.7250992
C      -1.8043650     -1.2566102     -0.6415875
C      -2.8289483      1.9164384     -0.7384271
C      -2.5291812      3.3101348     -0.7069126
O      -0.8094760     -0.6990032     -1.3414779
H      -1.5043027     -3.2746642     -1.3705263
C      -3.7507391      1.4365818     -1.7102459
C      -3.1492135      4.1765956     -1.6480821
H      -3.9842152      0.3714532     -1.7375997
H      -2.9086967      5.2410238     -1.6167614
C      -4.3358430      2.2990131     -2.6064480
C      -4.0316429      3.6830741     -2.5781777
H      -5.0381138      1.9162963     -3.3482993
H      -4.5015303      4.3545915     -3.2981859
H       1.0579028      1.1816834     -3.6441868
C       3.8205092      0.6112906     -2.1272318
C       4.5384544     -0.6490813     -2.0355463
C       2.3022747     -1.0759819     -2.4700598
C       1.4180081      1.2501064     -2.6065111
C       3.6358279     -1.6800022     -2.1703364
N       2.4526121      0.2751327     -2.3564232
O       1.2590764     -1.6518143     -2.7652958
O       4.2047684      1.7633775     -2.0832446
H       5.6152199     -0.7023523     -1.9004350
H       1.8608923      2.2391901     -2.4373443
H       3.8306064     -2.7246482     -2.4111922
H       0.5660021      1.0983810     -1.9294415
          85

O       0.7039634     -2.8089141     -0.1758174
C       1.8831756     -3.0974849     -0.3164386
O       2.2757248     -4.3090304     -0.7617379
C       1.2496183     -5.2321673     -1.1270278
C       0.8128670     -5.0154429     -2.5624479
C       3.0064680     -2.2212926     -0.0665379
N       2.7660048     -0.9785273      0.3922557
C       3.7801321     -0.2241632      0.6885244
C       3.6367157      1.1964863      1.0088915
C       2.4803634      1.9169737      0.6612820
C       2.4064433      3.2866225      0.8974701
C       3.4705740      3.9615322      1.5022669
C       4.6205016      3.2542472      1.8560090
C       4.7056575      1.8876738      1.5995322
H       1.6898276     -6.2277820     -0.9873555
H       0.4029198     -5.1170542     -0.4364099
H       1.6515026     -5.1900341     -3.2514423
H       0.4720689     -3.9801888     -2.6991168
H      -0.0010057     -5.7077923     -2.8206079
H      -0.1836334     -1.3438596     -1.7405563
H       3.9863322     -2.6946298      0.0516433
H       4.7958058     -0.6466226      0.7650719
H       1.6667702      1.3887972      0.1574399
H       1.5220731      3.8426246      0.5815745
H       3.4083734      5.0361843      1.6813484
H       5.4605338      3.7729106      2.3218023
H       5.6156433      1.3398898      1.8569388
H       0.4149712     -0.2803964      4.9693898
C       0.1483618     -0.0616585      3.9401254
H      -1.1132238      1.7773796      3.8679441
H       1.1851831     -2.6926926      2.1466180
C      -0.5942010      0.9439027      3.4047430
H       1.1036921     -2.5810034      3.9385884
C       1.3799483     -2.0588217      3.0164188
N       0.5478860     -0.8667280      2.8950302
H      -5.9872539     -0.0276591      3.2521662
H      -6.5149002     -2.4659737      3.1085581
C      -5.4031453     -0.6686803      2.5897567
C      -5.7034362     -2.0509082      2.5091651
N      -0.6323374      0.7252187      2.0400122
H       2.4371218     -1.7689065      3.0398577
C       0.0759038     -0.3756092      1.7531084
C      -4.3843599     -0.1272408      1.8397808
C      -4.9722045     -2.8628334      1.6736704
H      -0.3138784      3.3198259      1.9002910
H      -4.1622297      0.9397878      1.9063846
H      -5.1951764     -3.9296723      1.6009288
C      -1.3057984      1.5667142      1.0971680
C      -1.0217642      2.9540575      1.1560073
C      -3.6087363     -0.9442965      0.9695083
C      -3.9131872     -2.3354206      0.8877864
H       0.2912680     -0.7894860      0.7629590
C      -2.5379669     -0.4215566      0.1840095
C      -3.1431777     -3.1594943      0.0177538
C      -2.2040991      1.0302236      0.1983595
C      -1.6226344      3.8069363      0.2693603
H      -3.3820254     -4.2232003     -0.0447370
H      -1.4038245      4.8757857      0.2985366
C      -2.1160633     -2.6429395     -0.7245914
C      -1.8059621     -1.2566892     -0.6413582
C      -2.8294861      1.9167707     -0.7383786
C      -2.5300930      3.3105094     -0.7063504
O      -0.8104854     -0.7010565     -1.3429989
H      -1.5057336     -3.2746178     -1.3697711
C      -3.7508210      1.4368533     -1.7106199
C      -3.1502573      4.1770628     -1.6473501
H      -3.9839297      0.3716590     -1.7384287
H      -2.9101539      5.2415719     -1.6156192
C      -4.3359916      2.2993663     -2.6066812
C      -4.0323470      3.6835397     -2.5777740
H      -5.0379107      1.9166528     -3.3488665
H      -4.5023713      4.3551568     -3.2975991
H       1.0502740      1.1809225     -3.6369260
C       3.8186853      0.6181930     -2.1284920
C       4.5438835     -0.6425219     -2.0368412
C       2.3116674     -1.0762692     -2.4742457
C       1.4145489      1.2483705     -2.6007264
C       3.6489797     -1.6758488     -2.1826885
N       2.4551576      0.2772711     -2.3575195
O       1.2710903     -1.6536357     -2.7705457
O       4.2033459      1.7692122     -2.0846422
H       5.6203066     -0.6890692     -1.8958419
H       1.8533728      2.2391123     -2.4306867
H       3.8475497     -2.7200069     -2.4092555
H       0.5664156      1.0904518     -1.9203241
          85

O       0.6988806     -2.8069236     -0.1791516
C       1.8806530     -3.0979396     -0.3064775
O       2.2727237     -4.3104067     -0.7560830
C       1.2464384     -5.2301233     -1.1263989
C       0.8134630     -5.0123754     -2.5629266
C       2.9993908     -2.2324046     -0.0325923
N       2.7697831     -0.9832661      0.4006939
C       3.7842274     -0.2250990      0.6929078
C       3.6396803      1.1959778      1.0073106
C       2.4821497      1.9161668      0.6611222
C       2.4065940      3.2855906      0.8980394
C       3.4696672      3.9622232      1.5028589
C       4.6212161      3.2561559      1.8539249
C       4.7083554      1.8900715      1.5962229
H       1.6836556     -6.2272102     -0.9867325
H       0.3972192     -5.1145650     -0.4388283
H       1.6538400     -5.1864549     -3.2499922
H       0.4730717     -3.9770489     -2.6995085
H       0.0002403     -5.7045401     -2.8238411
H      -0.1814775     -1.3509188     -1.7298340
H       3.9887120     -2.6987729      0.0521486
H       4.7998469     -0.6473963      0.7722517
H       1.6678763      1.3874728      0.1589358
H       1.5208182      3.8400939      0.5833612
H       3.4055134      5.0364258      1.6836604
H       5.4610440      3.7754621      2.3194694
H       5.6194235      1.3437893      1.8530732
H       0.4167606     -0.2805855      4.9682738
C       0.1495850     -0.0618843      3.9391530
H      -1.1118327      1.7772676      3.8675605
H       1.1817948     -2.6944030      2.1463529
C      -0.5931831      0.9436952      3.4041306
H       1.1047813     -2.5803262      3.9386893
C       1.3794153     -2.0599053      3.0150340
N       0.5483185     -0.8671136      2.8939725
H      -5.9878003     -0.0261283      3.2520873
H      -6.5162734     -2.4642841      3.1089609
C      -5.4039762     -0.6674560      2.5897239
C      -5.7047277     -2.0495660      2.5094376
N      -0.6321852      0.7248528      2.0394179
H       2.4368803     -1.7708920      3.0351207
C       0.0758140     -0.3761526      1.7522670
C      -4.3850800     -0.1264083      1.8395287
C      -4.9737326     -2.8618222      1.6740758
H      -0.3146558      3.3195817      1.9007844
H      -4.1626807      0.9405744      1.9060100
H      -5.1968912     -3.9286326      1.6015255
C      -1.3060174      1.5664738      1.0970038
C      -1.0225069      2.9539304      1.1564118
C      -3.6097587     -0.9437646      0.9693090
C      -3.9146594     -2.3348153      0.8880978
H       0.2899858     -0.7914383      0.7624203
C      -2.5386069     -0.4215780      0.1836256
C      -3.1450522     -3.1596546      0.0184670
C      -2.2042909      1.0301533      0.1980129
C      -1.6236538      3.8070450      0.2701679
H      -3.3843367     -4.2232864     -0.0435299
H      -1.4051578      4.8759450      0.2998483
C      -2.1177977     -2.6437743     -0.7238662
C      -1.8071832     -1.2576324     -0.6411272
C      -2.8298629      1.9169528     -0.7383969
C      -2.5308701      3.3107755     -0.7058440
O      -0.8111058     -0.7042055     -1.3442207
H      -1.5073157     -3.2757483     -1.3685411
C      -3.7509785      1.4371495     -1.7109111
C      -3.1511223      4.1774757     -1.6466654
H      -3.9838464      0.3719142     -1.7390971
H      -2.9113245      5.2420425     -1.6145277
C      -4.3361691      2.2997812     -2.6068390
C      -4.0328796      3.6840199     -2.5774444
H      -5.0378522      1.9171117     -3.3492709
H      -4.5029347      4.3557426     -3.2971518
H       1.0461448      1.1760246     -3.6320235
C       3.8145556      0.6240428     -2.1291844
C       4.5489800     -0.6394808     -2.0453139
C       2.3201767     -1.0773093     -2.4805660
C       1.4115265      1.2457627     -2.5965470
C       3.6657073     -1.6684605     -2.2141492
N       2.4570872      0.2792295     -2.3555283
O       1.2803431     -1.6554280     -2.7733720
O       4.2023642      1.7723053     -2.0825250
H       5.6255820     -0.6798361     -1.9026810
H       1.8456130      2.2386724     -2.4273622
H       3.8635458     -2.7209485     -2.4079575
H       0.5655899      1.0837776     -1.9147288
          85

O       0.6938784     -2.8039940     -0.1832952
C       1.8773559     -3.0986651     -0.2976327
O       2.2682109     -4.3127648     -0.7480254
C       1.2415288     -5.2283336     -1.1250456
C       0.8146573     -5.0083793     -2.5632077
C       2.9960879     -2.2431639     -0.0055188
N       2.7738047     -0.9870680      0.4079203
C       3.7878266     -0.2268913      0.6981278
C       3.6425828      1.1949655      1.0069082
C       2.4835146      1.9141145      0.6624366
C       2.4064026      3.2835473      0.8988130
C       3.4690212      3.9624924      1.5019387
C       4.6222879      3.2580214      1.8506797
C       4.7112243      1.8920467      1.5931375
H       1.6750557     -6.2271306     -0.9852327
H       0.3890372     -5.1120973     -0.4414949
H       1.6579300     -5.1813484     -3.2470693
H       0.4746971     -3.9729576     -2.6996894
H       0.0026319     -5.7003248     -2.8285936
H      -0.1793242     -1.3591182     -1.7184308
H       3.9846055     -2.7076724      0.0647938
H       4.8037855     -0.6486908      0.7787506
H       1.6685383      1.3842793      0.1626181
H       1.5190496      3.8363038      0.5854195
H       3.4031690      5.0365286      1.6830800
H       5.4621822      3.7784903      2.3148786
H       5.6235617      1.3474934      1.8492696
H       0.4185166     -0.2801659      4.9673067
C       0.1507428     -0.0617974      3.9382734
H      -1.1098566      1.7778882      3.8667130
H       1.1757411     -2.6978820      2.1479083
C      -0.5919220      0.9438671      3.4033017
H       1.1055893     -2.5790462      3.9403178
C       1.3777257     -2.0616221      3.0142399
N       0.5482316     -0.8677499      2.8932552
H      -5.9882750     -0.0238192      3.2519447
H      -6.5179990     -2.4617462      3.1097977
C      -5.4049164     -0.6656693      2.5896785
C      -5.7063676     -2.0476231      2.5099792
N      -0.6320627      0.7243327      2.0387057
H       2.4357206     -1.7743203      3.0292579
C       0.0752843     -0.3771660      1.7516347
C      -4.3859134     -0.1253107      1.8390503
C      -4.9758481     -2.8604816      1.6748126
H      -0.3155765      3.3190091      1.9012962
H      -4.1630718      0.9416016      1.9051903
H      -5.1993831     -3.9272366      1.6026576
C      -1.3061889      1.5659384      1.0965658
C      -1.0233104      2.9535173      1.1567404
C      -3.6110970     -0.9432517      0.9689861
C      -3.9166895     -2.3341998      0.8885694
H       0.2882405     -0.7939574      0.7621429
C      -2.5394359     -0.4219065      0.1830713
C      -3.1476666     -3.1601485      0.0195214
C      -2.2044244      1.0297684      0.1973704
C      -1.6247995      3.8069542      0.2710490
H      -3.3876163     -4.2236614     -0.0418233
H      -1.4067347      4.8759233      0.3014084
C      -2.1201559     -2.6452385     -0.7228384
C      -1.8087576     -1.2592554     -0.6408317
C      -2.8302230      1.9169448     -0.7385866
C      -2.5317120      3.3108791     -0.7053229
O      -0.8118962     -0.7084627     -1.3454993
H      -1.5097808     -3.2777163     -1.3670748
C      -3.7511835      1.4374023     -1.7113794
C      -3.1520850      4.1778533     -1.6458186
H      -3.9838163      0.3721298     -1.7400951
H      -2.9126034      5.2424749     -1.6131168
C      -4.3364521      2.3002812     -2.6070195
C      -4.0335240      3.6845834     -2.5769959
H      -5.0379369      1.9177436     -3.3497067
H      -4.5036358      4.3564953     -3.2964895
H       1.0391605      1.1719589     -3.6250233
C       3.8126576      0.6295874     -2.1320853
C       4.5559048     -0.6344897     -2.0618018
C       2.3286261     -1.0774509     -2.4898002
C       1.4075825      1.2428169     -2.5907085
C       3.6806733     -1.6632050     -2.2454360
N       2.4588263      0.2805639     -2.3548926
O       1.2899052     -1.6571869     -2.7783863
O       4.2006065      1.7765783     -2.0782402
H       5.6323867     -0.6695459     -1.9157232
H       1.8373522      2.2376534     -2.4219202
H       3.8793242     -2.7158240     -2.4249093
H       0.5649472      1.0758514     -1.9061152
          85

O       0.6910700     -2.7992413     -0.1876059
C       1.8758271     -3.0987297     -0.2898340
O       2.2633754     -4.3163070     -0.7380045
C       1.2349284     -5.2260055     -1.1223191
C       0.8165866     -5.0033500     -2.5626832
C       2.9929385     -2.2519361      0.0171717
N       2.7785758     -0.9914530      0.4145070
C       3.7919630     -0.2290911      0.7042237
C       3.6454770      1.1931967      1.0080002
C       2.4846045      1.9108856      0.6652954
C       2.4060331      3.2805515      0.8996808
C       3.4686462      3.9624133      1.4996133
C       4.6238483      3.2599607      1.8461432
C       4.7143904      1.8938029      1.5903237
H       1.6628529     -6.2271863     -0.9815573
H       0.3787225     -5.1072416     -0.4437531
H       1.6638539     -5.1758119     -3.2417792
H       0.4781238     -3.9675489     -2.6995890
H       0.0057254     -5.6943851     -2.8341024
H      -0.1772621     -1.3686099     -1.7063442
H       3.9873592     -2.7136803      0.0655084
H       4.8082925     -0.6501441      0.7861303
H       1.6688506      1.3793570      0.1686125
H       1.5169891      3.8312823      0.5874497
H       3.4013022      5.0365173      1.6797896
H       5.4641198      3.7822217      2.3077357
H       5.6282160      1.3512480      1.8454729
H       0.4201909     -0.2791937      4.9664922
C       0.1518175     -0.0614842      3.9374785
H      -1.1072688      1.7791773      3.8653234
H       1.1681443     -2.7023393      2.1505101
C      -0.5903971      0.9443367      3.4022117
H       1.1054561     -2.5778510      3.9430497
C       1.3750003     -2.0640695      3.0142108
N       0.5476090     -0.8687730      2.8929202
H      -5.9887044     -0.0204142      3.2516747
H      -6.5202279     -2.4580350      3.1111672
C      -5.4060171     -0.6630788      2.5896088
C      -5.7084838     -2.0448300      2.5108697
N      -0.6319479      0.7235310      2.0378303
H       2.4336066     -1.7789576      3.0236308
C       0.0743680     -0.3788200      1.7512074
C      -4.3868644     -0.1238078      1.8383209
C      -4.9786997     -2.8586420      1.6760174
H      -0.3165967      3.3180143      1.9017371
H      -4.1633638      0.9430031      1.9038528
H      -5.2028373     -3.9253115      1.6045369
C      -1.3063001      1.5650043      1.0958201
C      -1.0241707      2.9527255      1.1569360
C      -3.6127528     -0.9427043      0.9685647
C      -3.9193712     -2.3335063      0.8893217
H       0.2862390     -0.7975682      0.7622347
C      -2.5404363     -0.4226175      0.1823048
C      -3.1510797     -3.1609688      0.0211085
C      -2.2044836      1.0289892      0.1963703
C      -1.6260735      3.8065703      0.2719492
H      -3.3919773     -4.2243123     -0.0393596
H      -1.4085492      4.8756239      0.3031562
C      -2.1231093     -2.6474560     -0.7213350
C      -1.8106264     -1.2616456     -0.6405105
C      -2.8305638      1.9166665     -0.7390096
C      -2.5326430      3.3107398     -0.7048274
O      -0.8129073     -0.7139421     -1.3469252
H      -1.5130314     -3.2807051     -1.3650811
C      -3.7514178      1.4375377     -1.7121090
C      -3.1532230      4.1781324     -1.6447998
H      -3.9837623      0.3722211     -1.7415447
H      -2.9140948      5.2428105     -1.6113438
C      -4.3368803      2.3008055     -2.6072547
C      -4.0343844      3.6851805     -2.5763987
H      -5.0382027      1.9184940     -3.3502122
H      -4.5046375      4.3573811     -3.2955301
H       1.0308057      1.1693393     -3.6152395
C       3.8111320      0.6353920     -2.1353342
C       4.5628314     -0.6293556     -2.0783330
C       2.3372465     -1.0772705     -2.4995845
C       1.4040330      1.2398668     -2.5827401
C       3.6954078     -1.6559396     -2.2752659
N       2.4615038      0.2821647     -2.3554833
O       1.2998543     -1.6586542     -2.7851270
O       4.1988883      1.7809164     -2.0735129
H       5.6396923     -0.6597256     -1.9331560
H       1.8293037      2.2365332     -2.4135477
H       3.8953830     -2.7135705     -2.4351396
H       0.5660134      1.0666027     -1.8943143
          85

O       0.6898955     -2.7923583     -0.1927525
C       1.8748530     -3.0983237     -0.2839493
O       2.2578773     -4.3204379     -0.7257670
C       1.2265466     -5.2229578     -1.1177814
C       0.8192323     -4.9973604     -2.5609694
C       2.9937171     -2.2597324      0.0320333
N       2.7841377     -0.9947998      0.4190809
C       3.7964402     -0.2320400      0.7106595
C       3.6488404      1.1908442      1.0105559
C       2.4856911      1.9061811      0.6699788
C       2.4055725      3.2763086      0.9008360
C       3.4687504      3.9618696      1.4955784
C       4.6261826      3.2620658      1.8400243
C       4.7182967      1.8953629      1.5875634
H       1.6470651     -6.2270212     -0.9748829
H       0.3661780     -5.0996529     -0.4452056
H       1.6711150     -5.1713182     -3.2339430
H       0.4845479     -3.9605656     -2.6993121
H       0.0085870     -5.6859637     -2.8392763
H      -0.1753102     -1.3792439     -1.6940343
H       3.9848640     -2.7223789      0.0768792
H       4.8134296     -0.6520123      0.7923535
H       1.6691369      1.3721875      0.1773780
H       1.5145612      3.8245443      0.5898132
H       3.4000807      5.0363027      1.6732014
H       5.4671547      3.7868321      2.2975334
H       5.6339906      1.3552917      1.8413565
H       0.4218649     -0.2778011      4.9657312
C       0.1528544     -0.0611375      3.9366646
H      -1.1039899      1.7809506      3.8632134
H       1.1600099     -2.7073964      2.1534009
C      -0.5885690      0.9448821      3.4007090
H       1.1035425     -2.5778801      3.9458860
C       1.3713099     -2.0673756      3.0147362
N       0.5464580     -0.8704115      2.8928687
H      -5.9891562     -0.0151675      3.2510255
H      -6.5233427     -2.4523543      3.1131322
C      -5.4074013     -0.6591120      2.5893843
C      -5.7113694     -2.0405876      2.5121580
N      -0.6318475      0.7221829      2.0366558
H       2.4306277     -1.7848872      3.0195751
C       0.0729949     -0.3813793      1.7508927
C      -4.3879684     -0.1215817      1.8371611
C      -4.9826447     -2.8559380      1.6779087
H      -0.3177821      3.3163474      1.9020815
H      -4.1634626      0.9450788      1.9016410
H      -5.2077667     -3.9224703      1.6075440
C      -1.3063205      1.5634225      1.0945943
C      -1.0250951      2.9513032      1.1569209
C      -3.6148575     -0.9420515      0.9680215
C      -3.9229452     -2.3326427      0.8905402
H       0.2837626     -0.8023122      0.7625260
C      -2.5417049     -0.4238634      0.1812377
C      -3.1554917     -3.1622458      0.0236638
C      -2.2044309      1.0276102      0.1948208
C      -1.6275417      3.8056844      0.2728717
H      -3.3975806     -4.2253903     -0.0354279
H      -1.4107206      4.8748452      0.3051948
C      -2.1268221     -2.6507400     -0.7190079
C      -1.8129739     -1.2651093     -0.6401615
C      -2.8308745      1.9159425     -0.7398010
C      -2.5337322      3.3101950     -0.7043758
O      -0.8144346     -0.7209473     -1.3486968
H      -1.5172903     -3.2852302     -1.3620772
C      -3.7516721      1.4374048     -1.7132459
C      -3.1547231      4.1782017     -1.6434966
H      -3.9836124      0.3720263     -1.7436941
H      -2.9160757      5.2429535     -1.6089897
C      -4.3375346      2.3012583     -2.6075859
C      -4.0356619      3.6857371     -2.5755462
H      -5.0387239      1.9192889     -3.3508447
H      -4.5062295      4.3583515     -3.2940860
H       1.0216762      1.1685678     -3.6031879
C       3.8116920      0.6415746     -2.1382140
C       4.5711125     -0.6220906     -2.0944271
C       2.3463999     -1.0758723     -2.5089837
C       1.4007616      1.2373792     -2.5727326
C       3.7097963     -1.6497889     -2.2994754
N       2.4646082      0.2840784     -2.3559853
O       1.3108105     -1.6593337     -2.7930172
O       4.1973459      1.7869158     -2.0678994
H       5.6479729     -0.6477494     -1.9475861
H       1.8217248      2.2356180     -2.4021300
H       3.9118901     -2.7053751     -2.4564010
H       0.5678866      1.0568024     -1.8800283
          85

O       0.6904106     -2.7841633     -0.1988035
C       1.8753997     -3.0972254     -0.2792570
O       2.2524282     -4.3248554     -0.7129876
C       1.2173546     -5.2195323     -1.1120728
C       0.8218205     -4.9915987     -2.5582416
C       2.9947728     -2.2652481      0.0436233
N       2.7905277     -0.9983436      0.4234034
C       3.8020074     -0.2348279      0.7168230
C       3.6528869      1.1883045      1.0134986
C       2.4870698      1.9008524      0.6755662
C       2.4053560      3.2714946      0.9022573
C       3.4694642      3.9610970      1.4906822
C       4.6293536      3.2642642      1.8328998
C       4.7230315      1.8969120      1.5845496
H       1.6294159     -6.2267055     -0.9661528
H       0.3529710     -5.0901520     -0.4457530
H       1.6780147     -5.1695068     -3.2247064
H       0.4931610     -3.9532170     -2.6988657
H       0.0100612     -5.6762608     -2.8430263
H      -0.1737157     -1.3904761     -1.6814900
H       3.9895989     -2.7282226      0.0758534
H       4.8193474     -0.6540739      0.7995360
H       1.6696529      1.3639922      0.1876522
H       1.5121898      3.8170680      0.5927255
H       3.3995263      5.0359776      1.6650766
H       5.4711809      3.7919347      2.2855272
H       5.6407473      1.3594408      1.8366197
H       0.4234829     -0.2767067      4.9647818
C       0.1538134     -0.0612317      3.9356394
H      -1.1005601      1.7824213      3.8606552
H       1.1528356     -2.7125334      2.1555931
C      -0.5867122      0.9449975      3.3988632
H       1.1006970     -2.5791632      3.9481258
C       1.3674969     -2.0712712      3.0152440
N       0.5450811     -0.8727068      2.8927141
H      -5.9898721     -0.0080874      3.2497522
H      -6.5273906     -2.4447412      3.1154183
C      -5.4091587     -0.6537526      2.5888752
C      -5.7149974     -2.0349016      2.5136969
N      -0.6318227      0.7201986      2.0351774
H       2.4274864     -1.7911576      3.0167174
C       0.0714242     -0.3846918      1.7504246
C      -4.3892312     -0.1185911      1.8355898
C      -4.9874581     -2.8523756      1.6805094
H      -0.3189158      3.3140022      1.9021621
H      -4.1634348      0.9478807      1.8985490
H      -5.2138658     -3.9187349      1.6117386
C      -1.3062790      1.5612240      1.0929723
C      -1.0259600      2.9492518      1.1566107
C      -3.6172916     -0.9412440      0.9674890
C      -3.9271279     -2.3315802      0.8923593
H       0.2812681     -0.8078679      0.7627071
C      -2.5432307     -0.4255197      0.1799719
C      -3.1604673     -3.1638259      0.0273256
C      -2.2043302      1.0257180      0.1928261
C      -1.6290521      3.8042516      0.2736531
H      -3.4038283     -4.2267814     -0.0298530
H      -1.4130152      4.8735284      0.3072434
C      -2.1310091     -2.6548075     -0.7158512
C      -1.8157630     -1.2692943     -0.6398369
C      -2.8311520      1.9147554     -0.7409573
C      -2.5349172      3.3091985     -0.7040597
O      -0.8167709     -0.7287760     -1.3510319
H      -1.5221140     -3.2909157     -1.3579720
C      -3.7519177      1.4368799     -1.7147615
C      -3.1565892      4.1779510     -1.6420247
H      -3.9833011      0.3714132     -1.7464252
H      -2.9185633      5.2427995     -1.6062574
C      -4.3384184      2.3014371     -2.6080207
C      -4.0373945      3.6860624     -2.5744876
H      -5.0395079      1.9198845     -3.3515876
H      -4.5085119      4.3592100     -3.2921659
H       1.0140393      1.1697580     -3.5903548
C       3.8128026      0.6485727     -2.1395901
C       4.5790199     -0.6141672     -2.1063383
C       2.3558031     -1.0736760     -2.5176811
C       1.3985984      1.2356605     -2.5618003
C       3.7232413     -1.6414796     -2.3204056
N       2.4687628      0.2868188     -2.3562428
O       1.3220108     -1.6588186     -2.8012602
O       4.1965481      1.7933998     -2.0622176
H       5.6562594     -0.6359467     -1.9611473
H       1.8149729      2.2353430     -2.3884084
H       3.9288172     -2.6996303     -2.4689442
H       0.5706916      1.0467871     -1.8654489
          85

O       0.6914233     -2.7755674     -0.2065879
C       1.8757377     -3.0958095     -0.2780286
O       2.2466430     -4.3291900     -0.7013492
C       1.2074734     -5.2163414     -1.1057624
C       0.8233625     -4.9873799     -2.5548923
C       2.9975759     -2.2697507      0.0476459
N       2.7964626     -1.0004325      0.4236367
C       3.8072855     -0.2378104      0.7202877
C       3.6571483      1.1853846      1.0157241
C       2.4884749      1.8951318      0.6815260
C       2.4055314      3.2662794      0.9040963
C       3.4712266      3.9596586      1.4851871
C       4.6335749      3.2655935      1.8246103
C       4.7283948      1.8975416      1.5803413
H       1.6108193     -6.2264405     -0.9557950
H       0.3396651     -5.0796497     -0.4453538
H       1.6830492     -5.1719240     -3.2150472
H       0.5027028     -3.9469569     -2.6989792
H       0.0089731     -5.6667714     -2.8447696
H      -0.1727575     -1.4014531     -1.6699422
H       3.9886987     -2.7347011      0.0813873
H       4.8249657     -0.6565698      0.8026095
H       1.6699150      1.3555266      0.1987319
H       1.5101308      3.8093835      0.5967039
H       3.4004780      5.0350364      1.6561132
H       5.4766385      3.7960184      2.2717154
H       5.6482436      1.3625220      1.8298943
H       0.4248941     -0.2766986      4.9633165
C       0.1545680     -0.0623342      3.9341133
H      -1.0975024      1.7827737      3.8577438
H       1.1488173     -2.7164415      2.1550716
C      -0.5851327      0.9440971      3.3965864
H       1.0962770     -2.5832881      3.9474771
C       1.3641472     -2.0756278      3.0148344
N       0.5436435     -0.8758184      2.8919478
H      -5.9911382      0.0011322      3.2476029
H      -6.5325575     -2.4349241      3.1180854
C      -5.4114791     -0.6467763      2.5879975
C      -5.7195013     -2.0275689      2.5155731
N      -0.6319842      0.7173904      2.0332422
H       2.4245218     -1.7972201      3.0165526
C       0.0697581     -0.3887040      1.7493979
C      -4.3907786     -0.1147026      1.8335586
C      -4.9931692     -2.8478616      1.6841057
H      -0.3199038      3.3108517      1.9017606
H      -4.1634388      0.9515551      1.8943793
H      -5.2211490     -3.9140224      1.6175376
C      -1.3062633      1.5583205      1.0908556
C      -1.0266933      2.9464481      1.1558060
C      -3.6201222     -0.9402582      0.9670812
C      -3.9319298     -2.3303078      0.8950366
H       0.2788651     -0.8136823      0.7621853
C      -2.5451505     -0.4276266      0.1785285
C      -3.1660425     -3.1657326      0.0323615
C      -2.2042852      1.0232408      0.1903192
C      -1.6304622      3.8021273      0.2740165
H      -3.4107063     -4.2285242     -0.0222463
H      -1.4151903      4.8715115      0.3089355
C      -2.1358502     -2.6596899     -0.7118123
C      -1.8192135     -1.2742259     -0.6396128
C      -2.8314330      1.9129933     -0.7426011
C      -2.5361385      3.3076149     -0.7040923
O      -0.8202773     -0.7373331     -1.3540565
H      -1.5278092     -3.2978339     -1.3527920
C      -3.7522251      1.4358096     -1.7167196
C      -3.1587829      4.1772089     -1.6406148
H      -3.9829170      0.3702314     -1.7497389
H      -2.9214859      5.2421711     -1.6034597
C      -4.3396301      2.3011604     -2.6086273
C      -4.0396345      3.6859652     -2.5733588
H      -5.0406998      1.9200875     -3.3524578
H      -4.5115645      4.3597376     -3.2899143
H       1.0086153      1.1749441     -3.5773475
C       3.8148914      0.6557950     -2.1404183
C       4.5869160     -0.6054344     -2.1182094
C       2.3643515     -1.0697014     -2.5253057
C       1.3970930      1.2357179     -2.5500177
C       3.7356069     -1.6338368     -2.3378653
N       2.4726222      0.2907273     -2.3556334
O       1.3322409     -1.6562804     -2.8094463
O       4.1963246      1.8007047     -2.0555406
H       5.6642937     -0.6236020     -1.9730447
H       1.8090155      2.2362956     -2.3711725
H       3.9435111     -2.6896346     -2.4894456
H       0.5730690      1.0374540     -1.8517970
          85

O       0.6935255     -2.7670310     -0.2139549
C       1.8772085     -3.0940664     -0.2770488
O       2.2418377     -4.3328040     -0.6909332
C       1.1984843     -5.2131108     -1.0992787
C       0.8242159     -4.9840227     -2.5510253
C       3.0002542     -2.2728085      0.0511245
N       2.8028902     -1.0028666      0.4247221
C       3.8132702     -0.2404767      0.7234153
C       3.6622162      1.1827857      1.0175457
C       2.4906863      1.8899130      0.6875880
C       2.4066882      3.2614917      0.9064824
C       3.4742251      3.9583548      1.4799858
C       4.6391990      3.2669472      1.8157245
C       4.7349426      1.8982779      1.5751642
H       1.5936482     -6.2258442     -0.9452105
H       0.3279766     -5.0690942     -0.4439658
H       1.6863762     -5.1760707     -3.2057992
H       0.5119049     -3.9415592     -2.6987745
H       0.0065535     -5.6579175     -2.8445806
H      -0.1724167     -1.4127285     -1.6587415
H       3.9933946     -2.7394629      0.0779708
H       4.8311550     -0.6588546      0.8058973
H       1.6707819      1.3477052      0.2101378
H       1.5089838      3.8023800      0.6019376
H       3.4027219      5.0341507      1.6478995
H       5.4837246      3.7999795      2.2569605
H       5.6569595      1.3655232      1.8215739
H       0.4257319     -0.2781787      4.9611989
C       0.1549794     -0.0645807      3.9319488
H      -1.0953755      1.7816053      3.8545946
H       1.1443709     -2.7217632      2.1546695
C      -0.5840825      0.9420288      3.3938850
H       1.0938341     -2.5866566      3.9471172
C       1.3614509     -2.0803183      3.0136243
N       0.5424577     -0.8795211      2.8903500
H      -5.9931722      0.0121594      3.2444122
H      -6.5386519     -2.4233104      3.1209500
C      -5.4144336     -0.6384151      2.5866280
C      -5.7247251     -2.0188630      2.5176572
N      -0.6321687      0.7139736      2.0307796
H       2.4222922     -1.8033613      3.0137187
C       0.0684865     -0.3930050      1.7476067
C      -4.3927083     -0.1099734      1.8310294
C      -4.9994301     -2.8425302      1.6886234
H      -0.3206875      3.3071940      1.9008197
H      -4.1637508      0.9560751      1.8891487
H      -5.2290633     -3.9085018      1.6248443
C      -1.3062047      1.5549587      1.0882755
C      -1.0272558      2.9431628      1.1544760
C      -3.6232469     -0.9390055      0.9668057
C      -3.9370629     -2.3287707      0.8985662
H       0.2771737     -0.8193631      0.7608044
C      -2.5473409     -0.4299710      0.1769836
C      -3.1718244     -3.1678259      0.0388108
C      -2.2043140      1.0204266      0.1874089
C      -1.6318120      3.7995517      0.2739287
H      -3.4176825     -4.2305017     -0.0125713
H      -1.4173161      4.8690457      0.3102131
C      -2.1409686     -2.6651504     -0.7067612
C      -1.8230438     -1.2796827     -0.6392641
C      -2.8318119      1.9108617     -0.7446235
C      -2.5374495      3.3056443     -0.7044876
O      -0.8244567     -0.7465563     -1.3574698
H      -1.5337840     -3.3056998     -1.3462289
C      -3.7527027      1.4343342     -1.7189672
C      -3.1612541      4.1760919     -1.6394239
H      -3.9826329      0.3686328     -1.7533529
H      -2.9247404      5.2411762     -1.6008730
C      -4.3411731      2.3004880     -2.6093977
C      -4.0422874      3.6854865     -2.5723218
H      -5.0422887      1.9199059     -3.3534346
H      -4.5151870      4.3598970     -3.2876339
H       1.0057419      1.1835698     -3.5650346
C       3.8175894      0.6640145     -2.1391604
C       4.5942619     -0.5959858     -2.1246384
C       2.3729377     -1.0647783     -2.5314516
C       1.3965073      1.2370407     -2.5380766
C       3.7466003     -1.6246910     -2.3510118
N       2.4773167      0.2956753     -2.3545287
O       1.3424096     -1.6524843     -2.8166295
O       4.1968971      1.8088519     -2.0483394
H       5.6718808     -0.6114061     -1.9807781
H       1.8035384      2.2381489     -2.3511820
H       3.9579112     -2.6811113     -2.5012383
H       0.5751817      1.0277790     -1.8396797
          85

O       0.6944846     -2.7631452     -0.2166411
C       1.8778893     -3.0930336     -0.2761449
O       2.2398820     -4.3339304     -0.6861570
C       1.1947851     -5.2114417     -1.0959893
C       0.8244971     -4.9824975     -2.5488118
C       3.0016560     -2.2739132      0.0533094
N       2.8056895     -1.0033830      0.4256040
C       3.8158936     -0.2412446      0.7252869
C       3.6646091      1.1821333      1.0186082
C       2.4918146      1.8880950      0.6905697
C       2.4074451      3.2598992      0.9076620
C       3.4759145      3.9583315      1.4775514
C       4.6420708      3.2681018      1.8115774
C       4.7381176      1.8991170      1.5728468
H       1.5865606     -6.2252336     -0.9401297
H       0.3232199     -5.0643066     -0.4427486
H       1.6875637     -5.1779228     -3.2014130
H       0.5157983     -3.9391726     -2.6982263
H       0.0053457     -5.6540285     -2.8436746
H      -0.1723388     -1.4177402     -1.6535288
H       3.9947919     -2.7414738      0.0790801
H       4.8338326     -0.6595438      0.8078905
H       1.6712085      1.3447020      0.2156955
H       1.5086920      3.7997961      0.6044496
H       3.4041499      5.0343364      1.6439981
H       5.4873339      3.8023140      2.2500039
H       5.6611014      1.3673553      1.8178041
H       0.4259634     -0.2789474      4.9602449
C       0.1550485     -0.0657107      3.9309621
H      -1.0947189      1.7808286      3.8531123
H       1.1439606     -2.7233869      2.1539163
C      -0.5837997      0.9409035      3.3926263
H       1.0919746     -2.5889096      3.9463023
C       1.3605176     -2.0823009      3.0132312
N       0.5419804     -0.8812376      2.8896311
H      -5.9942892      0.0176736      3.2426884
H      -6.5416664     -2.4175354      3.1223142
C      -5.4159365     -0.6342308      2.5858777
C      -5.7272877     -2.0145261      2.5186647
N      -0.6323195      0.7122690      2.0296192
H       2.4214249     -1.8056581      3.0142501
C       0.0679708     -0.3950321      1.7467789
C      -4.3936767     -0.1075924      1.8297443
C      -5.0024259     -2.8398828      1.6909224
H      -0.3209254      3.3053613      1.9002500
H      -4.1639564      0.9583629      1.8864771
H      -5.2328409     -3.9057717      1.6285719
C      -1.3061793      1.5533013      1.0870250
C      -1.0274376      2.9415236      1.1537584
C      -3.6247411     -0.9383657      0.9667123
C      -3.9394841     -2.3280029      0.9003919
H       0.2765158     -0.8219612      0.7601605
C      -2.5483997     -0.4310973      0.1762626
C      -3.1744993     -3.1688236      0.0421075
C      -2.2043347      1.0190563      0.1860017
C      -1.6323476      3.7982496      0.2737862
H      -3.4208779     -4.2314604     -0.0076438
H      -1.4181583      4.8677841      0.3106733
C      -2.1433522     -2.6677776     -0.7041955
C      -1.8248648     -1.2822880     -0.6390686
C      -2.8319790      1.9098010     -0.7456232
C      -2.5380299      3.3046504     -0.7047315
O      -0.8265336     -0.7508832     -1.3591376
H      -1.5365700     -3.3095233     -1.3428893
C      -3.7529381      1.4335738     -1.7200485
C      -3.1624292      4.1755010     -1.6388898
H      -3.9825027      0.3678124     -1.7550686
H      -2.9262894      5.2406446     -1.5996914
C      -4.3419467      2.3001054     -2.6097578
C      -4.0435927      3.6851980     -2.5718210
H      -5.0431076      1.9197581     -3.3538716
H      -4.5169886      4.3599164     -3.2865149
H       1.0070919      1.1880141     -3.5605021
C       3.8195130      0.6674672     -2.1379970
C       4.5980908     -0.5920045     -2.1266424
C       2.3771871     -1.0625602     -2.5330350
C       1.3972438      1.2376801     -2.5331369
C       3.7518801     -1.6208926     -2.3552181
N       2.4799806      0.2978674     -2.3532726
O       1.3473254     -1.6507464     -2.8187044
O       4.1979587      1.8123005     -2.0447703
H       5.6757754     -0.6062508     -1.9830209
H       1.8018247      2.2389244     -2.3414693
H       3.9643724     -2.6773629     -2.5053735
H       0.5761243      1.0231374     -1.8360926
