          85

O       1.0574250      2.0717498      1.4779220
C       2.1682361      2.4434810      1.1134451
O       2.8803494      3.3408830      1.8328431
C       2.3312509      3.7212719      3.0882498
C       3.3171910      4.6403858      3.7729473
C       2.8932540      1.9877327     -0.0377584
N       2.4306377      0.9488897     -0.7426258
C       3.0927873      0.4571043     -1.7564969
C       2.6476488     -0.7397579     -2.4676300
C       1.7743395     -1.6704163     -1.8753749
C       1.3422659     -2.7897554     -2.5785116
C       1.7854404     -3.0195447     -3.8841747
C       2.6789038     -2.1219677     -4.4716569
C       3.1092205     -0.9980488     -3.7691855
H       1.3625567      4.2214004      2.9273375
H       2.1473585      2.8111627      3.6801314
H       2.9189645      4.9624853      4.7449105
H       3.5060278      5.5326043      3.1594785
H       4.2724958      4.1234912      3.9412044
H       0.8176412      0.6399465     -0.5767429
H       3.7887308      2.5468939     -0.3538772
H       3.9633113      0.9945626     -2.1598742
H       1.4544835     -1.5111599     -0.8450028
H       0.6649761     -3.4997627     -2.0987553
H       1.4479550     -3.9001624     -4.4333775
H       3.0420601     -2.2979654     -5.4860838
H       3.8035091     -0.2956768     -4.2369297
H      -4.0235214      2.4368138      3.9569803
C      -3.6306253      2.2756289      2.9579363
H      -5.3085805      1.8265820      1.5545359
H      -1.3332407      1.8771916      4.4919479
C      -4.2598471      1.9866936      1.7860605
H      -1.2980886      3.6099561      4.0280995
C      -1.2187651      2.5804549      3.6594603
N      -2.2791826      2.3303137      2.6859805
H      -5.7858948     -2.6391302      1.9596026
H      -4.4186522     -3.6396184      3.7972877
C      -4.7136046     -2.4408748      2.0045958
C      -3.9395170     -3.0104017      3.0458922
N      -3.2761846      1.8775828      0.8221943
H      -0.2578824      2.4213481      3.1547822
C      -2.0838781      2.0898431      1.3944515
C      -4.1260182     -1.6459674      1.0475038
C      -2.5868705     -2.7676412      3.1033163
H      -4.7199291      3.1014964     -1.0551734
H      -4.7304362     -1.2186398      0.2444054
H      -1.9784810     -3.1990925      3.9015347
C      -3.4708707      1.4074139     -0.5207998
C      -4.2757856      2.1676752     -1.4022667
C      -2.7273274     -1.3776362      1.0815212
C      -1.9502677     -1.9492976      2.1324735
H      -1.1074660      2.0693434      0.9001707
C      -2.0847889     -0.5453085      0.1176656
C      -0.5586818     -1.6536186      2.1945961
C      -2.8771326      0.2151188     -0.8866876
C      -4.4694370      1.7180824     -2.6833222
H       0.0251186     -2.0663931      3.0207353
H      -5.0853085      2.2897599     -3.3795721
C       0.0427689     -0.8473480      1.2647805
C      -0.7224618     -0.2959084      0.1948959
C      -3.0477528     -0.2395879     -2.2300992
C      -3.8545659      0.5156189     -3.1318864
O      -0.1855120      0.5304730     -0.6973228
H       1.0905270     -0.5543791      1.3508565
C      -2.4186877     -1.4286117     -2.6916757
C      -4.0167711      0.0503736     -4.4661410
H      -1.7877479     -1.9902146     -2.0010573
H      -4.6367623      0.6304844     -5.1524236
C      -2.5881146     -1.8473640     -3.9893024
C      -3.3982440     -1.1032062     -4.8846459
H      -2.0918707     -2.7545253     -4.3374450
H      -3.5246542     -1.4494448     -5.9115231
H       2.1869002     -2.7908561      1.0004649
C       4.5549373     -1.3698851      0.1416472
C       5.2650155     -0.0722048      0.0920907
C       3.7683909     -0.0597532      1.8550663
C       2.9334414     -2.4252612      1.7192554
C       4.7995163      0.7081172      1.0941685
N       3.6400708     -1.2786663      1.1993815
O       3.1597337      0.2594379      2.8542713
O       4.7149675     -2.3719553     -0.5177467
H       6.0497621      0.1342386     -0.6314842
H       2.4298989     -2.1145402      2.6431038
H       5.1403292      1.6866656      1.4328552
H       3.6375279     -3.2402799      1.9415821
          85

O       1.0533700      2.0625277      1.4805845
C       2.1607698      2.4386419      1.1113124
O       2.8724210      3.3389014      1.8269208
C       2.3299477      3.7158998      3.0860820
C       3.3198080      4.6329490      3.7676819
C       2.8842869      1.9861663     -0.0428300
N       2.4215287      0.9468019     -0.7479393
C       3.0837465      0.4569624     -1.7623392
C       2.6418184     -0.7420959     -2.4720774
C       1.7691183     -1.6729649     -1.8792473
C       1.3415519     -2.7954315     -2.5800714
C       1.7890518     -3.0282728     -3.8837680
C       2.6821073     -2.1304029     -4.4715964
C       3.1076230     -1.0031566     -3.7715127
H       1.3608647      4.2170706      2.9315525
H       2.1490299      2.8042792      3.6763181
H       2.9263277      4.9541005      4.7416426
H       3.5067795      5.5257053      3.1547595
H       4.2750558      4.1148508      3.9308872
H       0.8143073      0.6368232     -0.5800437
H       3.7675968      2.5532284     -0.3654037
H       3.9521154      0.9967789     -2.1670562
H       1.4464657     -1.5119051     -0.8500352
H       0.6646929     -3.5056093     -2.0998870
H       1.4554423     -3.9115558     -4.4310288
H       3.0488113     -2.3088659     -5.4843263
H       3.8018032     -0.3007559     -4.2394378
H      -4.0279697      2.4492922      3.9530871
C      -3.6339126      2.2841385      2.9551577
H      -5.3105774      1.8331387      1.5508363
H      -1.3384632      1.8870120      4.4933236
C      -4.2619086      1.9922199      1.7833691
H      -1.3032281      3.6188181      4.0255035
C      -1.2231259      2.5884887      3.6593691
N      -2.2820455      2.3359271      2.6849378
H      -5.7862937     -2.6449794      1.9602986
H      -4.4175088     -3.6470822      3.7958923
C      -4.7141308     -2.4459797      2.0050788
C      -3.9391297     -3.0164739      3.0451919
N      -3.2771091      1.8783594      0.8213197
H      -0.2615084      2.4283026      3.1565548
C      -2.0852505      2.0906615      1.3944753
C      -4.1275841     -1.6491846      1.0489595
C      -2.5865881     -2.7730262      3.1023617
H      -4.7175155      3.1018171     -1.0587863
H      -4.7325520     -1.2209726      0.2467381
H      -1.9775603     -3.2053517      3.8996238
C      -3.4711706      1.4067004     -0.5212512
C      -4.2739492      2.1672014     -1.4044765
C      -2.7290525     -1.3802724      1.0827145
C      -1.9509429     -1.9531611      2.1322271
H      -1.1084186      2.0667465      0.9012677
C      -2.0873130     -0.5470223      0.1194248
C      -0.5591700     -1.6580769      2.1930033
C      -2.8785442      0.2134620     -0.8854826
C      -4.4663656      1.7167754     -2.6854247
H       0.0254813     -2.0724544      3.0177622
H      -5.0807844      2.2885212     -3.3828997
C       0.0415144     -0.8511307      1.2632547
C      -0.7249576     -0.2981637      0.1950839
C      -3.0466275     -0.2414636     -2.2291088
C      -3.8516261      0.5136572     -3.1324798
O      -0.1897248      0.5283078     -0.6978040
H       1.0896766     -0.5594387      1.3476298
C      -2.4160697     -1.4301847     -2.6894196
C      -4.0116407      0.0479594     -4.4668392
H      -1.7860956     -1.9914497     -1.9976447
H      -4.6306420      0.6277227     -5.1543088
C      -2.5828116     -1.8490168     -3.9873509
C      -3.3919581     -1.1054620     -4.8840886
H      -2.0853634     -2.7558629     -4.3346162
H      -3.5165557     -1.4519554     -5.9111020
H       2.1807808     -2.7953795      1.0010028
C       4.5437981     -1.3714897      0.1335266
C       5.2508088     -0.0730547      0.0797781
C       3.7599348     -0.0602618      1.8473721
C       2.9287565     -2.4276056      1.7171447
C       4.7857386      0.7094871      1.0815406
N       3.6315392     -1.2801770      1.1939381
O       3.1539896      0.2595464      2.8479974
O       4.7028344     -2.3747321     -0.5246609
H       6.0339930      0.1331753     -0.6455545
H       2.4276520     -2.1170596      2.6422690
H       5.1292382      1.6857452      1.4204142
H       3.6351416     -3.2409430      1.9378088
          85

O       1.0465297      2.0555559      1.4819183
C       2.1519682      2.4343060      1.1102401
O       2.8634695      3.3366434      1.8221113
C       2.3284535      3.7103947      3.0855005
C       3.3231394      4.6262017      3.7616278
C       2.8775193      1.9823682     -0.0448612
N       2.4150226      0.9428351     -0.7511936
C       3.0797202      0.4553004     -1.7649096
C       2.6406068     -0.7450838     -2.4741630
C       1.7676255     -1.6751303     -1.8806473
C       1.3412557     -2.7987676     -2.5801222
C       1.7909086     -3.0336677     -3.8827292
C       2.6850770     -2.1370140     -4.4706451
C       3.1091757     -1.0082775     -3.7719950
H       1.3583529      4.2117781      2.9380996
H       2.1519746      2.7971667      3.6746333
H       2.9375157      4.9450416      4.7395095
H       3.5048523      5.5203686      3.1491348
H       4.2797851      4.1078373      3.9156836
H       0.8143649      0.6341747     -0.5834767
H       3.7456682      2.5595542     -0.3748508
H       3.9458165      0.9982674     -2.1700077
H       1.4437572     -1.5126155     -0.8520377
H       0.6638250     -3.5082619     -2.0997532
H       1.4582533     -3.9179035     -4.4290365
H       3.0536911     -2.3175108     -5.4823284
H       3.8040977     -0.3066432     -4.2399529
H      -4.0308897      2.4580438      3.9502935
C      -3.6353326      2.2903692      2.9533746
H      -5.3101909      1.8390628      1.5470334
H      -1.3451192      1.8946165      4.4977540
C      -4.2616909      1.9970248      1.7810857
H      -1.3041381      3.6246724      4.0240297
C      -1.2258376      2.5928739      3.6616718
N      -2.2829436      2.3396526      2.6854383
H      -5.7841829     -2.6503998      1.9567140
H      -4.4156162     -3.6518066      3.7927493
C      -4.7123369     -2.4499324      2.0025305
C      -3.9373933     -3.0200934      3.0428807
N      -3.2754241      1.8797484      0.8209837
H      -0.2634881      2.4284799      3.1618259
C      -2.0842208      2.0914813      1.3957427
C      -4.1260610     -1.6515732      1.0476186
C      -2.5851618     -2.7751430      3.1013703
H      -4.7143566      3.1022767     -1.0607679
H      -4.7307471     -1.2233892      0.2451703
H      -1.9763153     -3.2074327      3.8987925
C      -3.4686935      1.4071851     -0.5214179
C      -4.2709474      2.1672379     -1.4055300
C      -2.7279207     -1.3812649      1.0828030
C      -1.9496544     -1.9541608      2.1321609
H      -1.1066537      2.0652391      0.9041656
C      -2.0864589     -0.5472044      0.1204538
C      -0.5579541     -1.6587650      2.1929473
C      -2.8766494      0.2134702     -0.8847790
C      -4.4635027      1.7156527     -2.6860564
H       0.0268996     -2.0733600      3.0174424
H      -5.0779650      2.2868374     -3.3839494
C       0.0426870     -0.8519182      1.2630872
C      -0.7242769     -0.2985169      0.1954541
C      -3.0434619     -0.2418823     -2.2283710
C      -3.8486673      0.5122399     -3.1322649
O      -0.1907151      0.5277655     -0.6982976
H       1.0910570     -0.5613368      1.3470348
C      -2.4113821     -1.4300754     -2.6879708
C      -4.0086349      0.0452714     -4.4661827
H      -1.7807332     -1.9901378     -1.9958500
H      -4.6282704      0.6239249     -5.1540164
C      -2.5775997     -1.8498397     -3.9856546
C      -3.3879702     -1.1079204     -4.8826485
H      -2.0789408     -2.7561922     -4.3324783
H      -3.5125500     -1.4553591     -5.9093452
H       2.1769740     -2.8052974      1.0070273
C       4.5309293     -1.3729329      0.1263285
C       5.2295155     -0.0713239      0.0651030
C       3.7477591     -0.0618263      1.8409089
C       2.9270723     -2.4332386      1.7186970
C       4.7642151      0.7135231      1.0671944
N       3.6215278     -1.2833448      1.1902777
O       3.1460436      0.2558521      2.8450862
O       4.6925149     -2.3785885     -0.5283333
H       6.0098738      0.1358474     -0.6630229
H       2.4294588     -2.1238575      2.6460482
H       5.1123130      1.6844087      1.4093241
H       3.6383045     -3.2430481      1.9362993
          85

O       1.0529283      2.0650364      1.4771091
C       2.1634209      2.4334081      1.1134483
O       2.8797772      3.3268795      1.8299323
C       2.3341546      3.7126486      3.0854273
C       3.3232865      4.6309793      3.7659922
C       2.8921351      1.9730592     -0.0395386
N       2.4188042      0.9370137     -0.7472225
C       3.0823770      0.4494550     -1.7610832
C       2.6407898     -0.7490457     -2.4729629
C       1.7705935     -1.6819146     -1.8801816
C       1.3431013     -2.8031117     -2.5831911
C       1.7884633     -3.0317143     -3.8883282
C       2.6791728     -2.1314598     -4.4758674
C       3.1047178     -1.0056061     -3.7735115
H       1.3673873      4.2152735      2.9237021
H       2.1485578      2.8042395      3.6788699
H       2.9254953      4.9590527      4.7355463
H       3.5155951      5.5194422      3.1488221
H       4.2759933      4.1116102      3.9374333
H       0.8155421      0.6304375     -0.5819041
H       3.7421989      2.5602946     -0.3838607
H       3.9478082      0.9923656     -2.1675942
H       1.4497154     -1.5235147     -0.8499451
H       0.6680494     -3.5154587     -2.1038098
H       1.4548414     -3.9139867     -4.4372209
H       3.0440295     -2.3069192     -5.4897283
H       3.7972344     -0.3011108     -4.2406648
H      -4.0284873      2.4536547      3.9519608
C      -3.6342957      2.2869443      2.9543431
H      -5.3110093      1.8358339      1.5501142
H      -1.3403956      1.8911333      4.4945104
C      -4.2622442      1.9941743      1.7827189
H      -1.3019815      3.6217229      4.0224108
C      -1.2235471      2.5903465      3.6588981
N      -2.2822907      2.3371405      2.6844682
H      -5.7864636     -2.6464110      1.9590815
H      -4.4180873     -3.6495042      3.7943792
C      -4.7143367     -2.4473086      2.0042694
C      -3.9395434     -3.0184135      3.0441921
N      -3.2772875      1.8781880      0.8211358
H      -0.2619223      2.4273465      3.1572662
C      -2.0854732      2.0900426      1.3943453
C      -4.1276565     -1.6497410      1.0489016
C      -2.5870065     -2.7750649      3.1018069
H      -4.7173203      3.1008203     -1.0597543
H      -4.7324269     -1.2209828      0.2468252
H      -1.9781321     -3.2079954      3.8988519
C      -3.4708730      1.4060320     -0.5213095
C      -4.2733914      2.1662284     -1.4050481
C      -2.7291358     -1.3811205      1.0830466
C      -1.9511118     -1.9549401      2.1321223
H      -1.1090200      2.0644999      0.9007203
C      -2.0871519     -0.5479397      0.1200194
C      -0.5590304     -1.6613827      2.1923846
C      -2.8777116      0.2129340     -0.8850729
C      -4.4652126      1.7154551     -2.6859562
H       0.0258510     -2.0765418      3.0165481
H      -5.0795993      2.2868363     -3.3837550
C       0.0421111     -0.8553512      1.2621943
C      -0.7244910     -0.3011546      0.1947379
C      -3.0447711     -0.2420488     -2.2288036
C      -3.8498951      0.5124444     -3.1325463
O      -0.1891089      0.5245028     -0.6987071
H       1.0910121     -0.5664544      1.3457652
C      -2.4132110     -1.4303952     -2.6886932
C      -4.0095879      0.0461311     -4.4667239
H      -1.7829742     -1.9910440     -1.9966635
H      -4.6288977      0.6252551     -5.1544535
C      -2.5795386     -1.8497561     -3.9864950
C      -3.3892551     -1.1071251     -4.8834778
H      -2.0814223     -2.7563587     -4.3334373
H      -3.5137015     -1.4541419     -5.9103318
H       2.1802282     -2.8130617      1.0165498
C       4.5293413     -1.3685358      0.1242794
C       5.2191939     -0.0655920      0.0592418
C       3.7349583     -0.0577733      1.8349495
C       2.9328945     -2.4344103      1.7220472
C       4.7445748      0.7240295      1.0574040
N       3.6159377     -1.2806952      1.1876119
O       3.1300995      0.2589669      2.8382275
O       4.6960060     -2.3779619     -0.5247395
H       6.0005655      0.1431575     -0.6673168
H       2.4395854     -2.1273777      2.6525305
H       5.1004609      1.6858726      1.4096669
H       3.6512458     -3.2390288      1.9352305
          85

O       1.0565304      2.0691552      1.4728403
C       2.1713067      2.4299385      1.1162586
O       2.8894020      3.3188989      1.8344471
C       2.3365011      3.7133636      3.0849628
C       3.3230077      4.6328263      3.7675518
C       2.9040142      1.9595186     -0.0321847
N       2.4201792      0.9305663     -0.7436022
C       3.0847700      0.4438769     -1.7574443
C       2.6417062     -0.7525822     -2.4722104
C       1.7728218     -1.6864756     -1.8795922
C       1.3441332     -2.8059748     -2.5845885
C       1.7873675     -3.0309674     -3.8910574
C       2.6768039     -2.1293436     -4.4784114
C       3.1034759     -1.0051796     -3.7740765
H       1.3719585      4.2172654      2.9134308
H       2.1447914      2.8081956      3.6814768
H       2.9190178      4.9658147      4.7329999
H       3.5209780      5.5182354      3.1476913
H       4.2736696      4.1124627      3.9479989
H       0.8167298      0.6282274     -0.5808567
H       3.7472443      2.5544792     -0.3876475
H       3.9471772      0.9896072     -2.1659435
H       1.4539750     -1.5301302     -0.8483538
H       0.6700305     -3.5197098     -2.1059886
H       1.4529018     -3.9119772     -4.4414753
H       3.0396961     -2.3024987     -5.4933471
H       3.7950700     -0.2992901     -4.2404653
H      -4.0276088      2.4531548      3.9523052
C      -3.6339682      2.2864710      2.9544613
H      -5.3114844      1.8353798      1.5511578
H      -1.3393546      1.8908755      4.4935567
C      -4.2625855      1.9937270      1.7831625
H      -1.3006899      3.6213538      4.0209782
C      -1.2228317      2.5898556      3.6577137
N      -2.2820849      2.3366760      2.6838598
H      -5.7868291     -2.6453718      1.9589602
H      -4.4188989     -3.6490184      3.7942830
C      -4.7146426     -2.4466187      2.0042281
C      -3.9401094     -3.0180617      3.0441428
N      -3.2781351      1.8777981      0.8210735
H      -0.2613920      2.4264018      3.1559650
C      -2.0861024      2.0896209      1.3936232
C      -4.1276763     -1.6491593      1.0489424
C      -2.5874822     -2.7752623      3.1017640
H      -4.7185636      3.1000620     -1.0595779
H      -4.7323104     -1.2201793      0.2468851
H      -1.9787448     -3.2085175      3.8987319
C      -3.4715317      1.4056516     -0.5213556
C      -4.2742002      2.1657389     -1.4050347
C      -2.7290753     -1.3810300      1.0831118
C      -1.9512818     -1.9553764      2.1320961
H      -1.1104017      2.0639646      0.8987195
C      -2.0868501     -0.5479452      0.1200853
C      -0.5589893     -1.6628601      2.1921965
C      -2.8774874      0.2129547     -0.8851020
C      -4.4655055      1.7151973     -2.6860801
H       0.0259878     -2.0785305      3.0160075
H      -5.0799381      2.2864586     -3.3839364
C       0.0424805     -0.8571955      1.2619385
C      -0.7239891     -0.3021240      0.1947988
C      -3.0444976     -0.2419922     -2.2288880
C      -3.8497478      0.5124169     -3.1326421
O      -0.1879357      0.5236293     -0.6982218
H       1.0918307     -0.5699103      1.3452828
C      -2.4131181     -1.4304307     -2.6887842
C      -4.0094575      0.0461409     -4.4668224
H      -1.7829788     -1.9912203     -1.9967677
H      -4.6287867      0.6252877     -5.1545139
C      -2.5796962     -1.8499026     -3.9865260
C      -3.3892983     -1.1072058     -4.8835507
H      -2.0818867     -2.7567051     -4.3333847
H      -3.5138603     -1.4542957     -5.9103649
H       2.1843332     -2.8228152      1.0253572
C       4.5240187     -1.3648144      0.1202403
C       5.1983682     -0.0571577      0.0457502
C       3.7209895     -0.0546689      1.8285017
C       2.9386719     -2.4376111      1.7256848
C       4.7160577      0.7354359      1.0411950
N       3.6105288     -1.2802566      1.1855802
O       3.1180570      0.2591586      2.8345387
O       4.6982991     -2.3786471     -0.5210626
H       5.9809564      0.1528574     -0.6790897
H       2.4485669     -2.1325909      2.6586014
H       5.0769697      1.6951578      1.3998866
H       3.6636047     -3.2371439      1.9357723
          85

O       1.0609942      2.0713794      1.4678957
C       2.1790762      2.4261979      1.1212699
O       2.8941053      3.3160491      1.8375634
C       2.3377174      3.7151544      3.0859282
C       3.3233200      4.6345543      3.7697005
C       2.9246529      1.9404229     -0.0181586
N       2.4206865      0.9246672     -0.7397453
C       3.0866257      0.4413684     -1.7531744
C       2.6428726     -0.7533672     -2.4713288
C       1.7745404     -1.6866730     -1.8779951
C       1.3449561     -2.8054345     -2.5834800
C       1.7876388     -3.0288708     -3.8903603
C       2.6766226     -2.1271899     -4.4782357
C       3.1040113     -1.0036069     -3.7733209
H       1.3746197      4.2197599      2.9093208
H       2.1432356      2.8110193      3.6830588
H       2.9167142      4.9685404      4.7337063
H       3.5233678      5.5193315      3.1496381
H       4.2730581      4.1136486      3.9533218
H       0.8190401      0.6281122     -0.5798394
H       3.7412375      2.5559994     -0.3933885
H       3.9475569      0.9888178     -2.1619737
H       1.4573803     -1.5305582     -0.8462509
H       0.6711949     -3.5196977     -2.1052915
H       1.4528471     -3.9095083     -4.4412069
H       3.0386034     -2.3000358     -5.4935023
H       3.7956758     -0.2973966     -4.2390553
H      -4.0273432      2.4538732      3.9521097
C      -3.6337594      2.2870017      2.9542713
H      -5.3113885      1.8357829      1.5511319
H      -1.3385292      1.8909526      4.4929750
C      -4.2624618      1.9940966      1.7830399
H      -1.3003582      3.6216111      4.0208348
C      -1.2225492      2.5902152      3.6573037
N      -2.2818678      2.3370708      2.6835869
H      -5.7862658     -2.6450719      1.9578075
H      -4.4190450     -3.6487687      3.7935970
C      -4.7140775     -2.4464024      2.0034113
C      -3.9399365     -3.0178985      3.0435883
N      -3.2780729      1.8779287      0.8209517
H      -0.2611811      2.4270527      3.1555329
C      -2.0861065      2.0897980      1.3933671
C      -4.1267803     -1.6489932      1.0482878
C      -2.5872937     -2.7753086      3.1015365
H      -4.7188135      3.0996341     -1.0594955
H      -4.7311813     -1.2199906      0.2460694
H      -1.9787582     -3.2086531      3.8986098
C      -3.4711036      1.4056727     -0.5214607
C      -4.2741052      2.1655066     -1.4050340
C      -2.7281844     -1.3809060      1.0828963
C      -1.9507637     -1.9554887      2.1320422
H      -1.1110234      2.0639948      0.8975451
C      -2.0857163     -0.5475555      0.1202264
C      -0.5584155     -1.6634340      2.1924500
C      -2.8764151      0.2132430     -0.8851058
C      -4.4653037      1.7149236     -2.6860565
H       0.0265251     -2.0796344      3.0160029
H      -5.0799855      2.2859366     -3.3838967
C       0.0433393     -0.8576744      1.2624704
C      -0.7228024     -0.3017891      0.1954431
C      -3.0436464     -0.2418728     -2.2288446
C      -3.8492220      0.5122974     -3.1325509
O      -0.1863754      0.5246301     -0.6966940
H       1.0930833     -0.5718892      1.3456114
C      -2.4124329     -1.4304011     -2.6887355
C      -4.0091174      0.0459256     -4.4666671
H      -1.7822776     -1.9912021     -1.9967345
H      -4.6286217      0.6249812     -5.1542761
C      -2.5793389     -1.8500656     -3.9863847
C      -3.3890198     -1.1074444     -4.8833952
H      -2.0817736     -2.7570260     -4.3331854
H      -3.5137672     -1.4546648     -5.9101416
H       2.1891580     -2.8254598      1.0275726
C       4.5258193     -1.3603278      0.1175621
C       5.1834539     -0.0516561      0.0345657
C       3.7119075     -0.0532403      1.8254162
C       2.9429559     -2.4383805      1.7276721
C       4.6824045      0.7509177      1.0223454
N       3.6111937     -1.2793566      1.1876355
O       3.1143588      0.2593716      2.8358394
O       4.7020514     -2.3792208     -0.5175827
H       5.9691725      0.1612596     -0.6857213
H       2.4524784     -2.1352757      2.6611031
H       5.0626420      1.6945525      1.3991495
H       3.6696398     -3.2365545      1.9368214
          85

O       1.0776315      2.0747540      1.4618599
C       2.1997029      2.4263515      1.1259543
O       2.9093161      3.3157325      1.8472774
C       2.3379309      3.7212509      3.0872795
C       3.3190640      4.6398621      3.7781439
C       2.9475586      1.9303728     -0.0073102
N       2.4322388      0.9235064     -0.7306798
C       3.0904385      0.4374820     -1.7485870
C       2.6384984     -0.7538511     -2.4700726
C       1.7712634     -1.6902380     -1.8796537
C       1.3449360     -2.8094428     -2.5873043
C       1.7891018     -3.0307504     -3.8940066
C       2.6748284     -2.1249544     -4.4803706
C       3.0982810     -1.0010221     -3.7734169
H       1.3787138      4.2277546      2.8962681
H       2.1334178      2.8199995      3.6852369
H       2.9050402      4.9778459      4.7375592
H       3.5275966      5.5220825      3.1573112
H       4.2654174      4.1163510      3.9714398
H       0.8181335      0.6282924     -0.5748758
H       3.7731151      2.5423038     -0.3867450
H       3.9504331      0.9822117     -2.1624725
H       1.4537952     -1.5377608     -0.8474067
H       0.6731401     -3.5261956     -2.1100929
H       1.4580293     -3.9123132     -4.4456276
H       3.0381458     -2.2950175     -5.4956321
H       3.7888063     -0.2929534     -4.2380490
H      -4.0277762      2.4513208      3.9532724
C      -3.6347791      2.2850146      2.9551058
H      -5.3132799      1.8344111      1.5527746
H      -1.3366315      1.8896517      4.4915627
C      -4.2642046      1.9926805      1.7840621
H      -1.2993015      3.6202470      4.0188605
C      -1.2222543      2.5887313      3.6555306
N      -2.2830495      2.3353644      2.6835012
H      -5.7876904     -2.6452356      1.9608186
H      -4.4190004     -3.6494950      3.7953504
C      -4.7155047     -2.4463993      2.0057944
C      -3.9406308     -3.0181600      3.0452631
N      -3.2804516      1.8771634      0.8212120
H      -0.2615827      2.4254872      3.1521106
C      -2.0882039      2.0888009      1.3930709
C      -4.1290465     -1.6485102      1.0503812
C      -2.5880910     -2.7749618      3.1023185
H      -4.7196983      3.1005270     -1.0600459
H      -4.7343664     -1.2195746      0.2488049
H      -1.9787236     -3.2082391      3.8987817
C      -3.4737077      1.4054298     -0.5214303
C      -4.2755321      2.1660778     -1.4053973
C      -2.7302623     -1.3804451      1.0834281
C      -1.9524494     -1.9550568      2.1322696
H      -1.1135364      2.0636889      0.8964109
C      -2.0876112     -0.5477935      0.1195902
C      -0.5598485     -1.6640673      2.1914821
C      -2.8790574      0.2130021     -0.8852411
C      -4.4660534      1.7159631     -2.6867353
H       0.0255621     -2.0801579      3.0147279
H      -5.0796152      2.2877723     -3.3849065
C       0.0420728     -0.8599718      1.2602967
C      -0.7241099     -0.3037525      0.1936591
C      -3.0461142     -0.2419093     -2.2290449
C      -3.8507323      0.5128711     -3.1330967
O      -0.1849065      0.5216980     -0.6985482
H       1.0923790     -0.5755523      1.3423211
C      -2.4149325     -1.4305382     -2.6886941
C      -4.0098556      0.0467683     -4.4674203
H      -1.7855093     -1.9917783     -1.9963859
H      -4.6286591      0.6261292     -5.1554010
C      -2.5808123     -1.8497177     -3.9865978
C      -3.3896708     -1.1066401     -4.8839632
H      -2.0831451     -2.7566546     -4.3333000
H      -3.5137011     -1.4535321     -5.9109060
H       2.1981917     -2.8297370      1.0336621
C       4.5263953     -1.3535399      0.1175888
C       5.1808491     -0.0441668      0.0335397
C       3.7067276     -0.0469064      1.8233107
C       2.9530697     -2.4364585      1.7291276
C       4.6773814      0.7566757      1.0198745
N       3.6096765     -1.2731045      1.1853086
O       3.1061400      0.2631454      2.8332916
O       4.7055056     -2.3748875     -0.5128966
H       5.9724681      0.1675432     -0.6804040
H       2.4657654     -2.1371497      2.6654346
H       5.0578577      1.7035336      1.3986331
H       3.6871396     -3.2290333      1.9336031
          85

O       1.0885785      2.0766772      1.4575300
C       2.2140832      2.4255382      1.1329855
O       2.9133521      3.3178008      1.8530587
C       2.3337204      3.7230111      3.0881574
C       3.3169042      4.6389530      3.7770435
C       2.9857697      1.9207098      0.0142288
N       2.4389717      0.9287553     -0.7237735
C       3.0880270      0.4379307     -1.7446127
C       2.6338456     -0.7543946     -2.4716082
C       1.7691402     -1.6939682     -1.8827252
C       1.3444907     -2.8142345     -2.5909440
C       1.7889565     -3.0343420     -3.8976040
C       2.6741493     -2.1271755     -4.4828485
C       3.0952284     -1.0021146     -3.7751350
H       1.3760638      4.2304016      2.8923176
H       2.1266910      2.8216503      3.6850272
H       2.9067755      4.9808168      4.7365894
H       3.5277007      5.5185160      3.1532396
H       4.2615117      4.1116599      3.9686723
H       0.8160737      0.6325583     -0.5722037
H       3.7832825      2.5537223     -0.3839312
H       3.9515764      0.9760669     -2.1605137
H       1.4519215     -1.5429502     -0.8500762
H       0.6740509     -3.5321962     -2.1137648
H       1.4594070     -3.9162277     -4.4496856
H       3.0392204     -2.2967859     -5.4975384
H       3.7859821     -0.2941640     -4.2396813
H      -4.0282301      2.4503247      3.9538678
C      -3.6354732      2.2842210      2.9555719
H      -5.3142331      1.8338528      1.5535674
H      -1.3373299      1.8897767      4.4921894
C      -4.2650955      1.9920955      1.7845930
H      -1.2998441      3.6201124      4.0183651
C      -1.2230864      2.5883417      3.6557281
N      -2.2838182      2.3346189      2.6837378
H      -5.7887586     -2.6463506      1.9626859
H      -4.4188274     -3.6506649      3.7963087
C      -4.7166435     -2.4470544      2.0072921
C      -3.9410862     -3.0188235      3.0462464
N      -3.2815690      1.8768049      0.8214550
H      -0.2623439      2.4247973      3.1525468
C      -2.0892197      2.0882607      1.3932193
C      -4.1308628     -1.6486286      1.0518467
C      -2.5886330     -2.7749638      3.1028410
H      -4.7196443      3.1013671     -1.0606562
H      -4.7367138     -1.2198199      0.2505948
H      -1.9787585     -3.2082299      3.8989186
C      -3.4751957      1.4053018     -0.5213327
C      -4.2760076      2.1665575     -1.4057074
C      -2.7320170     -1.3803395      1.0840613
C      -1.9536212     -1.9547366      2.1325523
H      -1.1148653      2.0632258      0.8961245
C      -2.0895032     -0.5482326      0.1193507
C      -0.5608935     -1.6637873      2.1905424
C      -2.8811624      0.2125912     -0.8851241
C      -4.4662608      1.7165114     -2.6871525
H       0.0252049     -2.0793400      3.0135624
H      -5.0791396      2.2887652     -3.3855594
C       0.0409366     -0.8608123      1.2582587
C      -0.7256216     -0.3051233      0.1917672
C      -3.0474860     -0.2420027     -2.2290718
C      -3.8514176      0.5131037     -3.1333940
O      -0.1855963      0.5193978     -0.7014875
H       1.0917434     -0.5774930      1.3391453
C      -2.4159499     -1.4305080     -2.6885498
C      -4.0101488      0.0469865     -4.4677733
H      -1.7868812     -1.9918457     -1.9960016
H      -4.6286795      0.6263635     -5.1559831
C      -2.5811685     -1.8495012     -3.9865731
C      -3.3898856     -1.1064634     -4.8841077
H      -2.0832463     -2.7563235     -4.3332052
H      -3.5136491     -1.4533576     -5.9110803
H       2.2050837     -2.8343684      1.0363487
C       4.5276813     -1.3466502      0.1152220
C       5.1783996     -0.0396883      0.0300934
C       3.7042646     -0.0440318      1.8216299
C       2.9596698     -2.4367773      1.7296723
C       4.6692305      0.7736502      1.0148688
N       3.6073225     -1.2680276      1.1837787
O       3.0998121      0.2627571      2.8307574
O       4.7038763     -2.3753120     -0.5077989
H       5.9680884      0.1730169     -0.6857414
H       2.4737517     -2.1414833      2.6680200
H       5.0691258      1.7038261      1.4119911
H       3.6999005     -3.2247258      1.9296741
          85

O       1.0820666      2.0753982      1.4503042
C       2.2088947      2.4207196      1.1298419
O       2.9079219      3.3129779      1.8480679
C       2.3301342      3.7192007      3.0841943
C       3.3150130      4.6346384      3.7712247
C       2.9863475      1.9079000      0.0149566
N       2.4311336      0.9227361     -0.7285687
C       3.0839420      0.4342135     -1.7476358
C       2.6319563     -0.7583052     -2.4755906
C       1.7678410     -1.6973364     -1.8856176
C       1.3432307     -2.8177872     -2.5933214
C       1.7878852     -3.0378523     -3.8999007
C       2.6733434     -2.1312965     -4.4856426
C       3.0943368     -1.0058903     -3.7784079
H       1.3726402      4.2270151      2.8890951
H       2.1237960      2.8176639      3.6810369
H       2.9065915      4.9765851      4.7314518
H       3.5249660      5.5141302      3.1470677
H       4.2596696      4.1068915      3.9612035
H       0.8144412      0.6294920     -0.5775608
H       3.7693627      2.5530695     -0.3935184
H       3.9454198      0.9753274     -2.1634819
H       1.4509574     -1.5454952     -0.8529920
H       0.6728481     -3.5357622     -2.1161402
H       1.4582492     -3.9198331     -4.4517902
H       3.0384833     -2.3016686     -5.5001528
H       3.7852317     -0.2979966     -4.2427909
H      -4.0282653      2.4497385      3.9541108
C      -3.6357717      2.2837672      2.9556892
H      -5.3148554      1.8333740      1.5541002
H      -1.3383618      1.8898112      4.4923858
C      -4.2656731      1.9916903      1.7848576
H      -1.3002334      3.6200083      4.0180326
C      -1.2237357      2.5880949      3.6557495
N      -2.2841960      2.3343178      2.6835378
H      -5.7893735     -2.6472513      1.9633268
H      -4.4188812     -3.6514254      3.7965367
C      -4.7173177     -2.4476032      2.0078046
C      -3.9414035     -3.0192978      3.0465485
N      -3.2824059      1.8766008      0.8214782
H      -0.2629878      2.4240494      3.1530006
C      -2.0899503      2.0880332      1.3929123
C      -4.1319103     -1.6488774      1.0524435
C      -2.5890002     -2.7750962      3.1030793
H      -4.7197789      3.1016915     -1.0609997
H      -4.7378772     -1.2200993      0.2512619
H      -1.9789439     -3.2083969      3.8990006
C      -3.4760869      1.4051683     -0.5213431
C      -4.2763286      2.1667500     -1.4059331
C      -2.7331468     -1.3804350      1.0845226
C      -1.9543050     -1.9546903      2.1327641
H      -1.1160240      2.0627620      0.8951481
C      -2.0910921     -0.5487000      0.1194838
C      -0.5615221     -1.6639180      2.1899152
C      -2.8824311      0.2122567     -0.8849963
C      -4.4663921      1.7167342     -2.6874183
H       0.0250713     -2.0793642      3.0126278
H      -5.0789840      2.2891253     -3.3859642
C       0.0399752     -0.8616423      1.2567905
C      -0.7271359     -0.3060420      0.1905832
C      -3.0481166     -0.2420621     -2.2290893
C      -3.8517072      0.5131903     -3.1335476
O      -0.1884598      0.5176373     -0.7038872
H       1.0911056     -0.5796448      1.3366348
C      -2.4163485     -1.4304690     -2.6885058
C      -4.0103255      0.0470218     -4.4679221
H      -1.7874254     -1.9918061     -1.9958248
H      -4.6287873      0.6263731     -5.1562164
C      -2.5813263     -1.8494314     -3.9865666
C      -3.3900469     -1.1064581     -4.8841569
H      -2.0833126     -2.7562171     -4.3331676
H      -3.5137717     -1.4534070     -5.9111163
H       2.2009783     -2.8409870      1.0379316
C       4.5202153     -1.3495153      0.1089424
C       5.1577391     -0.0404677      0.0145231
C       3.6913582     -0.0472020      1.8143857
C       2.9563989     -2.4418407      1.7295903
C       4.6391954      0.7784753      0.9954129
N       3.6011762     -1.2728116      1.1817636
O       3.0911161      0.2596064      2.8265468
O       4.6988901     -2.3815962     -0.5089971
H       5.9487639      0.1733864     -0.6993411
H       2.4717471     -2.1467125      2.6686749
H       5.0503842      1.7003046      1.4016719
H       3.6978116     -3.2288741      1.9286710
          85

O       1.0746582      2.0741793      1.4436583
C       2.2026737      2.4159381      1.1265344
O       2.9018775      3.3079611      1.8425595
C       2.3266016      3.7149953      3.0798775
C       3.3130946      4.6300251      3.7649457
C       2.9866492      1.8957070      0.0156072
N       2.4222101      0.9172211     -0.7339777
C       3.0794036      0.4305446     -1.7506762
C       2.6304935     -0.7624441     -2.4798125
C       1.7669371     -1.7006367     -1.8884522
C       1.3419099     -2.8211255     -2.5954961
C       1.7866565     -3.0411181     -3.9020269
C       2.6726000     -2.1355265     -4.4885261
C       3.0939344     -1.0098328     -3.7819349
H       1.3690744      4.2230937      2.8861147
H       2.1213870      2.8131898      3.6767090
H       2.9061392      4.9719448      4.7257899
H       3.5220949      5.5095351      3.1405241
H       4.2578798      4.1020359      3.9534722
H       0.8128632      0.6265881     -0.5833696
H       3.7535079      2.5541044     -0.4037658
H       3.9389244      0.9747111     -2.1661500
H       1.4505980     -1.5475553     -0.8558469
H       0.6713750     -3.5389288     -2.1183403
H       1.4565994     -3.9230762     -4.4537133
H       3.0375067     -2.3069241     -5.5029189
H       3.7849593     -0.3020306     -4.2462230
H      -4.0280567      2.4490672      3.9544096
C      -3.6358870      2.2832604      2.9558334
H      -5.3153515      1.8328099      1.5547525
H      -1.3393848      1.8897938      4.4926013
C      -4.2661177      1.9912371      1.7851821
H      -1.3008524      3.6199115      4.0179349
C      -1.2243719      2.5879142      3.6558884
N      -2.2844148      2.3340324      2.6833119
H      -5.7899021     -2.6480382      1.9637817
H      -4.4189566     -3.6522147      3.7965575
C      -4.7179054     -2.4480573      2.0081841
C      -3.9416904     -3.0197481      3.0467208
N      -3.2831437      1.8764226      0.8215104
H      -0.2635288      2.4235976      3.1536950
C      -2.0905545      2.0878649      1.3925607
C      -4.1328125     -1.6490488      1.0529473
C      -2.5893329     -2.7752377      3.1032872
H      -4.7199124      3.1019629     -1.0612764
H      -4.7388171     -1.2202955      0.2517818
H      -1.9791457     -3.2086579      3.8990463
C      -3.4768684      1.4050575     -0.5213478
C      -4.2765909      2.1669313     -1.4061322
C      -2.7341556     -1.3804544      1.0850275
C      -1.9549064     -1.9545725      2.1330502
H      -1.1170704      2.0622492      0.8941185
C      -2.0925872     -0.5491204      0.1196838
C      -0.5620745     -1.6639562      2.1893932
C      -2.8835411      0.2119746     -0.8848656
C      -4.4664916      1.7169644     -2.6876597
H       0.0249878     -2.0792789      3.0118289
H      -5.0788833      2.2894572     -3.3862979
C       0.0390935     -0.8623775      1.2554194
C      -0.7285764     -0.3068768      0.1894712
C      -3.0486239     -0.2420513     -2.2291187
C      -3.8519410      0.5133027     -3.1337000
O      -0.1915165      0.5159968     -0.7062324
H       1.0905130     -0.5816214      1.3342607
C      -2.4167090     -1.4304038     -2.6884711
C      -4.0105633      0.0470051     -4.4680364
H      -1.7879492     -1.9917386     -1.9956390
H      -4.6290403      0.6262791     -5.1563838
C      -2.5814658     -1.8493551     -3.9865631
C      -3.3902317     -1.1064774     -4.8841971
H      -2.0833773     -2.7561178     -4.3331235
H      -3.5139579     -1.4535045     -5.9111309
H       2.1961195     -2.8473820      1.0393595
C       4.5128082     -1.3526605      0.1027846
C       5.1372160     -0.0414907     -0.0008807
C       3.6790690     -0.0506711      1.8072169
C       2.9523432     -2.4471920      1.7296637
C       4.6098695      0.7838682      0.9763299
N       3.5952567     -1.2780346      1.1800173
O       3.0828338      0.2560848      2.8221908
O       4.6938821     -2.3880906     -0.5102890
H       5.9287895      0.1734820     -0.7136522
H       2.4687636     -2.1518246      2.6692555
H       5.0329714      1.6962772      1.3919729
H       3.6943644     -3.2337564      1.9281677
          85

O       1.0652455      2.0726997      1.4380085
C       2.1940946      2.4110481      1.1222623
O       2.8952201      3.3019652      1.8357775
C       2.3241283      3.7104863      3.0747216
C       3.3112994      4.6256223      3.7589699
C       2.9839139      1.8858026      0.0144904
N       2.4111087      0.9108685     -0.7409930
C       3.0748972      0.4263838     -1.7539615
C       2.6299342     -0.7668872     -2.4840141
C       1.7664108     -1.7033558     -1.8907434
C       1.3405114     -2.8236137     -2.5969469
C       1.7855318     -3.0434808     -3.9033962
C       2.6720415     -2.1392198     -4.4910613
C       3.0941135     -1.0133447     -3.7854838
H       1.3663396      4.2187461      2.8830787
H       2.1204071      2.8085421      3.6718668
H       2.9037406      4.9664231      4.7199766
H       3.5194171      5.5059719      3.1354567
H       4.2564684      4.0983737      3.9476191
H       0.8120354      0.6227561     -0.5902331
H       3.7351642      2.5562422     -0.4170566
H       3.9318836      0.9749375     -2.1684705
H       1.4509861     -1.5485023     -0.8581456
H       0.6695352     -3.5410931     -2.1199971
H       1.4549021     -3.9253772     -4.4548386
H       3.0363147     -2.3119768     -5.5054179
H       3.7851384     -0.3054464     -4.2495507
H      -4.0274261      2.4484016      3.9548054
C      -3.6357371      2.2827477      2.9560142
H      -5.3157037      1.8323279      1.5555905
H      -1.3403951      1.8896647      4.4926820
C      -4.2663921      1.9908024      1.7856036
H      -1.3017349      3.6197754      4.0179910
C      -1.2249990      2.5877735      3.6560156
N      -2.2844330      2.3337747      2.6829726
H      -5.7902139     -2.6485137      1.9640108
H      -4.4190651     -3.6530302      3.7961937
C      -4.7182691     -2.4482476      2.0083746
C      -3.9418658     -3.0201312      3.0466803
N      -3.2837535      1.8762790      0.8215537
H      -0.2639550      2.4234865      3.1545148
C      -2.0909816      2.0877836      1.3920978
C      -4.1334021     -1.6491442      1.0531763
C      -2.5895508     -2.7754185      3.1034679
H      -4.7200902      3.1020078     -1.0613377
H      -4.7393293     -1.2205416      0.2518739
H      -1.9792973     -3.2091337      3.8990202
C      -3.4774181      1.4049420     -0.5213366
C      -4.2767646      2.1670042     -1.4062717
C      -2.7348891     -1.3803833      1.0855022
C      -1.9553787     -1.9543715      2.1334446
H      -1.1179157      2.0617560      0.8929873
C      -2.0937845     -0.5493758      0.1199909
C      -0.5625105     -1.6639632      2.1890670
C      -2.8842511      0.2117984     -0.8847778
C      -4.4665498      1.7172445     -2.6878887
H       0.0249400     -2.0791490      3.0112961
H      -5.0788872      2.2898335     -3.3864898
C       0.0383608     -0.8630832      1.2542848
C      -0.7297400     -0.3075297      0.1885802
C      -3.0489232     -0.2419176     -2.2292133
C      -3.8521154      0.5134817     -3.1338897
O      -0.1944284      0.5146578     -0.7080704
H       1.0899954     -0.5834134      1.3322874
C      -2.4170725     -1.4303486     -2.6884564
C      -4.0109411      0.0468688     -4.4681144
H      -1.7886246     -1.9917545     -1.9953950
H      -4.6296010      0.6259258     -5.1564939
C      -2.5815554     -1.8492973     -3.9865860
C      -3.3903664     -1.1065056     -4.8842519
H      -2.0834272     -2.7560624     -4.3330877
H      -3.5140886     -1.4535978     -5.9111655
H       2.1894580     -2.8535913      1.0408237
C       4.5050118     -1.3569774      0.0966606
C       5.1164899     -0.0428735     -0.0158528
C       3.6672421     -0.0546211      1.7999689
C       2.9466340     -2.4532430      1.7301105
C       4.5828576      0.7890219      0.9584091
N       3.5894633     -1.2845951      1.1786034
O       3.0755951      0.2524420      2.8178146
O       4.6892628     -2.3951399     -0.5124893
H       5.9081890      0.1726063     -0.7283173
H       2.4639224     -2.1565651      2.6697809
H       5.0142978      1.6962401      1.3818556
H       3.6880990     -3.2402148      1.9289159
          85

O       1.0562207      2.0704696      1.4316052
C       2.1847735      2.4065405      1.1167686
O       2.8898807      3.2971611      1.8296138
C       2.3230897      3.7075075      3.0717429
C       3.3104103      4.6234867      3.7563011
C       2.9672143      1.8737716      0.0047822
N       2.4021500      0.9008517     -0.7485697
C       3.0739433      0.4225599     -1.7587071
C       2.6297049     -0.7694073     -2.4862235
C       1.7656954     -1.7043570     -1.8916064
C       1.3397566     -2.8244571     -2.5974273
C       1.7849995     -3.0446196     -3.9037381
C       2.6717421     -2.1410447     -4.4917297
C       3.0938169     -1.0152336     -3.7867639
H       1.3651462      4.2159201      2.8813944
H       2.1200868      2.8055286      3.6691041
H       2.9017177      4.9629254      4.7173811
H       3.5173113      5.5047469      3.1336870
H       4.2561328      4.0974331      3.9450542
H       0.8122694      0.6176979     -0.5958604
H       3.7166408      2.5460532     -0.4262296
H       3.9270349      0.9768320     -2.1728601
H       1.4501169     -1.5488171     -0.8592573
H       0.6684155     -3.5417250     -2.1206410
H       1.4539735     -3.9262749     -4.4552985
H       3.0357371     -2.3142282     -5.5060712
H       3.7849813     -0.3073367     -4.2504795
H      -4.0268853      2.4480668      3.9550814
C      -3.6356036      2.2824851      2.9560888
H      -5.3158915      1.8323254      1.5560179
H      -1.3411879      1.8894180      4.4922720
C      -4.2665485      1.9905937      1.7858366
H      -1.3023961      3.6195574      4.0177333
C      -1.2254212      2.5876177      3.6557167
N      -2.2844066      2.3336579      2.6826077
H      -5.7902110     -2.6489020      1.9640245
H      -4.4192227     -3.6534181      3.7956844
C      -4.7183641     -2.4482224      2.0084041
C      -3.9418594     -3.0203123      3.0464424
N      -3.2841312      1.8761894      0.8216282
H      -0.2642359      2.4232308      3.1547689
C      -2.0912738      2.0878783      1.3917153
C      -4.1336148     -1.6492326      1.0530930
C      -2.5895662     -2.7755698      3.1036154
H      -4.7205466      3.1017053     -1.0613595
H      -4.7394283     -1.2210713      0.2514852
H      -1.9793798     -3.2095919      3.8991002
C      -3.4775833      1.4048114     -0.5213101
C      -4.2768446      2.1668885     -1.4063484
C      -2.7352321     -1.3804629      1.0855726
C      -1.9556484     -1.9543026      2.1336957
H      -1.1186423      2.0611263      0.8919550
C      -2.0943878     -0.5493859      0.1201856
C      -0.5627039     -1.6641610      2.1889824
C      -2.8844328      0.2116757     -0.8847802
C      -4.4666538      1.7174651     -2.6880722
H       0.0250263     -2.0793831      3.0109517
H      -5.0788556      2.2901475     -3.3866803
C       0.0378891     -0.8637210      1.2537095
C      -0.7303811     -0.3077311      0.1882001
C      -3.0490217     -0.2418711     -2.2292885
C      -3.8522254      0.5136507     -3.1339675
O      -0.1959670      0.5141141     -0.7086826
H       1.0897153     -0.5853436      1.3310215
C      -2.4172331     -1.4303609     -2.6884989
C      -4.0112123      0.0467362     -4.4681708
H      -1.7892664     -1.9919329     -1.9951401
H      -4.6300860      0.6254348     -5.1566666
C      -2.5816072     -1.8493259     -3.9866127
C      -3.3903849     -1.1065048     -4.8842799
H      -2.0835471     -2.7560937     -4.3331765
H      -3.5140419     -1.4535467     -5.9112271
H       2.1836659     -2.8556479      1.0406902
C       4.4995319     -1.3621226      0.0919486
C       5.0991806     -0.0469517     -0.0287599
C       3.6553199     -0.0588543      1.7943416
C       2.9416452     -2.4557756      1.7295059
C       4.5519715      0.7845448      0.9402024
N       3.5858486     -1.2900365      1.1777872
O       3.0706160      0.2512119      2.8158353
O       4.6861039     -2.3998364     -0.5164137
H       5.8960898      0.1702164     -0.7346737
H       2.4595954     -2.1579895      2.6691772
H       4.9905297      1.6856555      1.3668705
H       3.6812286     -3.2442010      1.9293074
          85

O       1.0470710      2.0683789      1.4252393
C       2.1752639      2.4025625      1.1111393
O       2.8846711      3.2925288      1.8237297
C       2.3222529      3.7046078      3.0692696
C       3.3099500      4.6213725      3.7535353
C       2.9505614      1.8629895     -0.0041251
N       2.3926157      0.8892479     -0.7567533
C       3.0728959      0.4184457     -1.7635874
C       2.6298685     -0.7722517     -2.4883237
C       1.7649401     -1.7050983     -1.8922838
C       1.3390960     -2.8250062     -2.5977425
C       1.7846628     -3.0459590     -3.9039527
C       2.6712021     -2.1427625     -4.4926499
C       3.0937009     -1.0173298     -3.7878787
H       1.3642239      4.2133308      2.8803020
H       2.1199813      2.8027283      3.6670608
H       2.9009726      4.9590693      4.7151795
H       3.5154277      5.5037609      3.1320756
H       4.2563512      4.0963845      3.9416017
H       0.8122736      0.6121401     -0.6016089
H       3.6976321      2.5377004     -0.4388462
H       3.9218898      0.9790046     -2.1770734
H       1.4491188     -1.5488574     -0.8601806
H       0.6675883     -3.5420575     -2.1208448
H       1.4535926     -3.9280560     -4.4547816
H       3.0349319     -2.3161245     -5.5070470
H       3.7847623     -0.3090892     -4.2511977
H      -4.0273827      2.4481703      3.9547190
C      -3.6358924      2.2825782      2.9558397
H      -5.3162063      1.8320711      1.5557223
H      -1.3412692      1.8894145      4.4920334
C      -4.2668716      1.9906012      1.7855798
H      -1.3015864      3.6195390      4.0174598
C      -1.2253225      2.5875134      3.6554369
N      -2.2846395      2.3337655      2.6823934
H      -5.7904113     -2.6490249      1.9638617
H      -4.4192035     -3.6533121      3.7960072
C      -4.7184939     -2.4485989      2.0082147
C      -3.9419903     -3.0203680      3.0465452
N      -3.2845402      1.8761378      0.8213939
H      -0.2644878      2.4225033      3.1542164
C      -2.0917389      2.0877738      1.3914020
C      -4.1337779     -1.6494950      1.0530352
C      -2.5897057     -2.7755875      3.1034792
H      -4.7205742      3.1018324     -1.0614080
H      -4.7396270     -1.2208933      0.2516738
H      -1.9794387     -3.2092865      3.8990322
C      -3.4778742      1.4047933     -0.5214724
C      -4.2770963      2.1669221     -1.4064021
C      -2.7353819     -1.3806797      1.0855487
C      -1.9556875     -1.9545603      2.1334829
H      -1.1194954      2.0614968      0.8909695
C      -2.0947810     -0.5497743      0.1201847
C      -0.5628369     -1.6646801      2.1888111
C      -2.8847463      0.2115845     -0.8847578
C      -4.4666644      1.7172436     -2.6880499
H       0.0248768     -2.0804765      3.0105259
H      -5.0789523      2.2897977     -3.3867211
C       0.0375932     -0.8642827      1.2534620
C      -0.7308746     -0.3078893      0.1881849
C      -3.0491241     -0.2420114     -2.2292588
C      -3.8522170      0.5134527     -3.1339550
O      -0.1976812      0.5136862     -0.7091268
H       1.0895976     -0.5871455      1.3300642
C      -2.4171600     -1.4303913     -2.6885006
C      -4.0110240      0.0468356     -4.4681640
H      -1.7888491     -1.9918501     -1.9953629
H      -4.6296822      0.6258739     -5.1565618
C      -2.5816521     -1.8493664     -3.9866293
C      -3.3904198     -1.1065296     -4.8842882
H      -2.0836617     -2.7562114     -4.3331304
H      -3.5141584     -1.4536371     -5.9111971
H       2.1783864     -2.8579338      1.0403208
C       4.4939955     -1.3669685      0.0874004
C       5.0824942     -0.0511142     -0.0413350
C       3.6431770     -0.0631330      1.7892480
C       2.9372185     -2.4584220      1.7285760
C       4.5209568      0.7793673      0.9216742
N       3.5820650     -1.2952861      1.1768841
O       3.0656511      0.2501505      2.8143566
O       4.6830642     -2.4041187     -0.5201999
H       5.8837329      0.1684341     -0.7412823
H       2.4556105     -2.1597683      2.6681795
H       4.9645082      1.6785427      1.3516138
H       3.6753860     -3.2479519      1.9291240
          85

O       1.0373645      2.0674643      1.4196641
C       2.1662264      2.3980204      1.1067891
O       2.8779635      3.2864520      1.8169268
C       2.3205636      3.7003087      3.0648067
C       3.3093257      4.6172589      3.7478823
C       2.9468692      1.8514116     -0.0065275
N       2.3811945      0.8828866     -0.7635126
C       3.0685804      0.4139950     -1.7664759
C       2.6299725     -0.7770424     -2.4921866
C       1.7644896     -1.7074693     -1.8941987
C       1.3378921     -2.8271619     -2.5987125
C       1.7838633     -3.0483048     -3.9047633
C       2.6704415     -2.1462749     -4.4951414
C       3.0941986     -1.0209800     -3.7912259
H       1.3622017      4.2092013      2.8785030
H       2.1202153      2.7982269      3.6629326
H       2.9005899      4.9530151      4.7103340
H       3.5129498      5.5009968      3.1277638
H       4.2564772      4.0932661      3.9348144
H       0.8116212      0.6081786     -0.6088705
H       3.6773727      2.5376765     -0.4503750
H       3.9140069      0.9796905     -2.1797769
H       1.4493456     -1.5490494     -0.8622660
H       0.6659133     -3.5438286     -2.1219853
H       1.4524145     -3.9306394     -4.4549801
H       3.0330507     -2.3208273     -5.5097006
H       3.7851226     -0.3125127     -4.2543188
H      -4.0279125      2.4485729      3.9543523
C      -3.6363823      2.2828732      2.9555080
H      -5.3167477      1.8321376      1.5555183
H      -1.3418165      1.8896139      4.4919681
C      -4.2674096      1.9907385      1.7853051
H      -1.3010126      3.6195895      4.0167604
C      -1.2255744      2.5873643      3.6551316
N      -2.2850652      2.3339195      2.6820917
H      -5.7907143     -2.6496789      1.9638768
H      -4.4194235     -3.6531459      3.7964699
C      -4.7188139     -2.4491489      2.0082024
C      -3.9422618     -3.0204964      3.0467278
N      -3.2851116      1.8761014      0.8211747
H      -0.2650007      2.4215165      3.1540048
C      -2.0923386      2.0876625      1.3910725
C      -4.1342062     -1.6499669      1.0531030
C      -2.5899621     -2.7757432      3.1034809
H      -4.7207757      3.1018377     -1.0616880
H      -4.7400234     -1.2212406      0.2517868
H      -1.9796890     -3.2092065      3.8991620
C      -3.4783018      1.4046329     -0.5216114
C      -4.2773514      2.1668638     -1.4065820
C      -2.7359089     -1.3811004      1.0856537
C      -1.9559270     -1.9550620      2.1333090
H      -1.1204440      2.0608582      0.8901654
C      -2.0957525     -0.5502740      0.1204530
C      -0.5630562     -1.6653789      2.1883221
C      -2.8853103      0.2112703     -0.8846024
C      -4.4668080      1.7169985     -2.6881428
H       0.0248396     -2.0813820      3.0098043
H      -5.0790011      2.2894311     -3.3870033
C       0.0370639     -0.8649129      1.2528186
C      -0.7318703     -0.3084008      0.1877517
C      -3.0492374     -0.2422316     -2.2291729
C      -3.8521735      0.5132658     -3.1339146
O      -0.2007356      0.5127026     -0.7103437
H       1.0891684     -0.5886194      1.3288786
C      -2.4170323     -1.4304459     -2.6885046
C      -4.0107173      0.0469231     -4.4682242
H      -1.7885726     -1.9917739     -1.9953945
H      -4.6291664      0.6261631     -5.1566313
C      -2.5816446     -1.8494404     -3.9866224
C      -3.3903742     -1.1065775     -4.8843090
H      -2.0836567     -2.7562761     -4.3331605
H      -3.5141233     -1.4536780     -5.9112196
H       2.1729603     -2.8643221      1.0409863
C       4.4866919     -1.3707250      0.0814449
C       5.0619561     -0.0526810     -0.0556727
C       3.6311071     -0.0668121      1.7823520
C       2.9323721     -2.4645671      1.7285753
C       4.4921554      0.7849568      0.9041555
N       3.5763953     -1.3012145      1.1756322
O       3.0590192      0.2468420      2.8107720
O       4.6789955     -2.4105183     -0.5223388
H       5.8641566      0.1679205     -0.7541566
H       2.4513429     -2.1655281      2.6683863
H       4.9475295      1.6736686      1.3421442
H       3.6705257     -3.2541094      1.9289358
          85

O       1.0305696      2.0672848      1.4130935
C       2.1610440      2.3931362      1.1048112
O       2.8723961      3.2815151      1.8117360
C       2.3180352      3.6963484      3.0608960
C       3.3085824      4.6128275      3.7417306
C       2.9530916      1.8366154     -0.0022185
N       2.3719139      0.8785414     -0.7688226
C       3.0644186      0.4105197     -1.7680876
C       2.6290203     -0.7810684     -2.4958354
C       1.7639574     -1.7104649     -1.8965285
C       1.3367950     -2.8302290     -2.6003150
C       1.7828366     -3.0512839     -3.9063026
C       2.6697351     -2.1501735     -4.4976449
C       3.0941493     -1.0246850     -3.7942929
H       1.3595695      4.2054469      2.8763208
H       2.1192447      2.7938290      3.6588851
H       2.9017179      4.9477836      4.7052335
H       3.5105257      5.4970732      3.1218257
H       4.2561691      4.0888616      3.9264268
H       0.8104638      0.6064683     -0.6147251
H       3.6604378      2.5400972     -0.4590118
H       3.9077085      0.9790246     -2.1815718
H       1.4493537     -1.5505722     -0.8646707
H       0.6645989     -3.5466440     -2.1236109
H       1.4509285     -3.9336121     -4.4562750
H       3.0318177     -2.3257013     -5.5121888
H       3.7852091     -0.3163685     -4.2573762
H      -4.0283346      2.4491040      3.9541028
C      -3.6368927      2.2832085      2.9552567
H      -5.3174113      1.8324242      1.5554788
H      -1.3429154      1.8899029      4.4920571
C      -4.2680387      1.9909423      1.7851528
H      -1.3009422      3.6196807      4.0161277
C      -1.2261991      2.5872473      3.6549590
N      -2.2855668      2.3340139      2.6817668
H      -5.7911853     -2.6505107      1.9642060
H      -4.4196610     -3.6532888      3.7969333
C      -4.7193227     -2.4497547      2.0084374
C      -3.9425900     -3.0207770      3.0470182
N      -3.2858344      1.8760144      0.8210216
H      -0.2657048      2.4206210      3.1542687
C      -2.0930557      2.0874661      1.3907365
C      -4.1349151     -1.6505491      1.0533178
C      -2.5902728     -2.7760349      3.1036275
H      -4.7210021      3.1018068     -1.0619994
H      -4.7407128     -1.2218780      0.2519591
H      -1.9799594     -3.2094067      3.8993311
C      -3.4789056      1.4043968     -0.5217036
C      -4.2776229      2.1667801     -1.4068099
C      -2.7367048     -1.3815937      1.0858995
C      -1.9563428     -1.9555396      2.1332852
H      -1.1216298      2.0600703      0.8891985
C      -2.0970201     -0.5508492      0.1207322
C      -0.5634407     -1.6659622      2.1876895
C      -2.8861651      0.2108462     -0.8844127
C      -4.4669363      1.7168518     -2.6883427
H       0.0248499     -2.0820206      3.0088592
H      -5.0790594      2.2892046     -3.3873182
C       0.0363238     -0.8656346      1.2517891
C      -0.7331078     -0.3090681      0.1869742
C      -3.0494698     -0.2424338     -2.2291219
C      -3.8521662      0.5131385     -3.1339720
O      -0.2038253      0.5115535     -0.7120427
H       1.0886688     -0.5905385      1.3270051
C      -2.4170267     -1.4305187     -2.6884721
C      -4.0104833      0.0469195     -4.4683329
H      -1.7886348     -1.9918236     -1.9952797
H      -4.6287485      0.6262800     -5.1568137
C      -2.5815612     -1.8495051     -3.9866091
C      -3.3902280     -1.1066385     -4.8843560
H      -2.0835636     -2.7563409     -4.3331409
H      -3.5139246     -1.4537397     -5.9112727
H       2.1697530     -2.8703308      1.0417416
C       4.4806006     -1.3722640      0.0753000
C       5.0414875     -0.0534610     -0.0707507
C       3.6193617     -0.0699607      1.7759877
C       2.9294888     -2.4695385      1.7284858
C       4.4602941      0.7935996      0.8856417
N       3.5710273     -1.3051157      1.1743138
O       3.0517125      0.2435582      2.8072975
O       4.6750615     -2.4162968     -0.5228985
H       5.8451588      0.1689672     -0.7668658
H       2.4491480     -2.1712386      2.6689173
H       4.9346038      1.6660033      1.3375489
H       3.6688011     -3.2582443      1.9276660
          85

O       1.0293203      2.0682581      1.4062741
C       2.1625370      2.3886026      1.1068991
O       2.8696061      3.2787195      1.8099360
C       2.3154150      3.6943534      3.0588980
C       3.3080284      4.6096545      3.7372609
C       2.9750514      1.8188113      0.0110600
N       2.3666053      0.8763987     -0.7708209
C       3.0610087      0.4082158     -1.7674620
C       2.6274206     -0.7838861     -2.4986670
C       1.7633822     -1.7131157     -1.8985256
C       1.3360697     -2.8331819     -2.6018833
C       1.7821431     -3.0537710     -3.9078528
C       2.6692388     -2.1531397     -4.4996996
C       3.0936730     -1.0272631     -3.7966000
H       1.3572722      4.2037814      2.8744384
H       2.1174421      2.7912414      3.6562510
H       2.9038164      4.9449112      4.7017080
H       3.5090617      5.4936495      3.1167529
H       4.2555211      4.0846909      3.9195183
H       0.8098771      0.6070084     -0.6185655
H       3.6483186      2.5454464     -0.4633990
H       3.9043927      0.9764742     -2.1810614
H       1.4495976     -1.5523927     -0.8665525
H       0.6640987     -3.5497256     -2.1251888
H       1.4501904     -3.9361366     -4.4577794
H       3.0313802     -2.3293785     -5.5140529
H       3.7850863     -0.3192209     -4.2595458
H      -4.0287246      2.4496627      3.9539500
C      -3.6374017      2.2835453      2.9550936
H      -5.3180890      1.8327891      1.5555524
H      -1.3439558      1.8902159      4.4922722
C      -4.2686673      1.9911701      1.7850881
H      -1.3011202      3.6198185      4.0156351
C      -1.2269369      2.5871924      3.6549263
N      -2.2860795      2.3340512      2.6815303
H      -5.7916959     -2.6513075      1.9647524
H      -4.4198287     -3.6536034      3.7974377
C      -4.7198681     -2.4503326      2.0088494
C      -3.9429086     -3.0211237      3.0473999
N      -3.2865675      1.8758937      0.8209335
H      -0.2664238      2.4200156      3.1547795
C      -2.0937835      2.0872093      1.3904948
C      -4.1356907     -1.6510906      1.0536655
C      -2.5905825     -2.7763268      3.1038227
H      -4.7211854      3.1018426     -1.0623423
H      -4.7415485     -1.2225293      0.2522928
H      -1.9801649     -3.2096604      3.8994693
C      -3.4795864      1.4041529     -0.5217668
C      -4.2778911      2.1667356     -1.4070446
C      -2.7375257     -1.3820066      1.0861598
C      -1.9568206     -1.9558948      2.1333262
H      -1.1229100      2.0592762      0.8882255
C      -2.0981924     -0.5513567      0.1209010
C      -0.5638776     -1.6663652      2.1870553
C      -2.8871014      0.2104274     -0.8842419
C      -4.4670402      1.7167754     -2.6885760
H       0.0248908     -2.0824038      3.0078881
H      -5.0789838      2.2891564     -3.3876933
C       0.0356074     -0.8663027      1.2506802
C      -0.7341520     -0.3096881      0.1860418
C      -3.0497982     -0.2426176     -2.2290923
C      -3.8522048      0.5130456     -3.1340830
O      -0.2060431      0.5105575     -0.7136415
H       1.0883036     -0.5925935      1.3249130
C      -2.4171266     -1.4305976     -2.6884069
C      -4.0102825      0.0468912     -4.4684859
H      -1.7889014     -1.9919190     -1.9950744
H      -4.6284302      0.6262743     -5.1570436
C      -2.5814461     -1.8495459     -3.9865843
C      -3.3900337     -1.1066951     -4.8844220
H      -2.0834063     -2.7563739     -4.3330820
H      -3.5136262     -1.4538020     -5.9113487
H       2.1701079     -2.8747141      1.0422963
C       4.4784971     -1.3703715      0.0699217
C       5.0254050     -0.0530815     -0.0834653
C       3.6094275     -0.0716404      1.7712130
C       2.9296129     -2.4726097      1.7286282
C       4.4274197      0.8090730      0.8677633
N       3.5674834     -1.3059349      1.1739153
O       3.0454735      0.2413063      2.8052415
O       4.6727363     -2.4206716     -0.5215592
H       5.8297503      0.1723729     -0.7777728
H       2.4496009     -2.1762654      2.6699042
H       4.9277822      1.6571253      1.3403810
H       3.6709770     -3.2598671      1.9256963
          85

O       1.0347647      2.0703477      1.4003921
C       2.1714793      2.3850742      1.1130863
O       2.8708863      3.2788826      1.8124512
C       2.3135235      3.6951828      3.0595127
C       3.3079088      4.6088205      3.7359576
C       3.0085549      1.8011223      0.0307590
N       2.3676519      0.8770770     -0.7679302
C       3.0590420      0.4076934     -1.7643537
C       2.6255426     -0.7846043     -2.4998185
C       1.7629939     -1.7146496     -1.8995564
C       1.3359468     -2.8351478     -2.6028685
C       1.7820386     -3.0549546     -3.9088610
C       2.6690824     -2.1542152     -4.5007751
C       3.0929750     -1.0278677     -3.7975155
H       1.3561665      4.2050268      2.8730375
H       2.1150622      2.7915668      3.6559381
H       2.9062889      4.9452795      4.7009740
H       3.5091474      5.4919162      3.1142853
H       4.2547423      4.0820167      3.9162321
H       0.8098558      0.6102239     -0.6184384
H       3.6445378      2.5518378     -0.4613145
H       3.9055492      0.9717716     -2.1775174
H       1.4501277     -1.5538838     -0.8673060
H       0.6645912     -3.5522047     -2.1261992
H       1.4504681     -3.9374076     -4.4589277
H       3.0316942     -2.3307627     -5.5148646
H       3.7848101     -0.3201161     -4.2602804
H      -4.0290808      2.4501783      3.9538715
C      -3.6378223      2.2838547      2.9550228
H      -5.3186047      1.8331741      1.5556152
H      -1.3445324      1.8904466      4.4924678
C      -4.2691409      1.9914022      1.7850663
H      -1.3013520      3.6199672      4.0153615
C      -1.2275284      2.5872203      3.6549670
N      -2.2864940      2.3340543      2.6814489
H      -5.7920739     -2.6518451      1.9652989
H      -4.4198923     -3.6538844      3.7978976
C      -4.7202678     -2.4507272      2.0092818
C      -3.9431250     -3.0213926      3.0477733
N      -3.2871054      1.8757853      0.8209111
H      -0.2669481      2.4198565      3.1552186
C      -2.0943414      2.0869616      1.3904271
C      -4.1362699     -1.6514426      1.0540171
C      -2.5907977     -2.7765187      3.1039963
H      -4.7212750      3.1019270     -1.0626378
H      -4.7422526     -1.2230038      0.2526718
H      -1.9802521     -3.2098293      3.8995556
C      -3.4801340      1.4039686     -0.5217995
C      -4.2780913      2.1667257     -1.4072252
C      -2.7380869     -1.3822457      1.0863184
C      -1.9571864     -1.9560837      2.1333622
H      -1.1239642      2.0587217      0.8875117
C      -2.0988520     -0.5516381      0.1209038
C      -0.5642065     -1.6665562      2.1865901
C      -2.8878021      0.2101370     -0.8841355
C      -4.4670890      1.7167520     -2.6887736
H       0.0249670     -2.0825686      3.0071347
H      -5.0788573      2.2891874     -3.3879885
C       0.0351764     -0.8667361      1.2498777
C      -0.7346295     -0.3100648      0.1852918
C      -3.0500989     -0.2427586     -2.2290723
C      -3.8522578      0.5129825     -3.1341892
O      -0.2066066      0.5100898     -0.7145954
H       1.0882597     -0.5943409      1.3232798
C      -2.4172557     -1.4306692     -2.6883324
C      -4.0101206      0.0468647     -4.4686274
H      -1.7892314     -1.9920510     -1.9948662
H      -4.6281561      0.6262708     -5.1572745
C      -2.5813302     -1.8495609     -3.9865553
C      -3.3898340     -1.1067261     -4.8844847
H      -2.0832587     -2.7563889     -4.3330105
H      -3.5133168     -1.4538414     -5.9114206
H       2.1746031     -2.8762605      1.0423754
C       4.4815184     -1.3651094      0.0668143
C       5.0178849     -0.0510730     -0.0904312
C       3.6033889     -0.0709582      1.7691272
C       2.9331834     -2.4728405      1.7290340
C       4.3997455      0.8281256      0.8543464
N       3.5670641     -1.3030710      1.1747100
O       3.0418747      0.2407901      2.8053997
O       4.6730745     -2.4223136     -0.5182935
H       5.8207787      0.1785973     -0.7850167
H       2.4528723     -2.1796108      2.6711832
H       4.9267774      1.6486770      1.3493193
H       3.6770860     -3.2583103      1.9234488
          85

O       1.0408238      2.0720429      1.3931765
C       2.1811415      2.3807833      1.1191969
O       2.8731636      3.2790739      1.8155353
C       2.3120972      3.6968952      3.0607607
C       3.3078446      4.6090546      3.7361762
C       3.0383001      1.7825228      0.0480039
N       2.3693568      0.8748108     -0.7648601
C       3.0576868      0.4068102     -1.7619178
C       2.6235892     -0.7848261     -2.5005436
C       1.7624231     -1.7155331     -1.9000425
C       1.3360033     -2.8364221     -2.6034166
C       1.7822293     -3.0554984     -3.9094250
C       2.6690136     -2.1544350     -4.5013038
C       3.0920869     -1.0277081     -3.7978179
H       1.3558151      4.2074004      2.8713107
H       2.1123175      2.7931129      3.6565005
H       2.9080821      4.9465953      4.7015215
H       3.5096707      5.4913471      3.1136022
H       4.2539063      4.0804787      3.9151140
H       0.8103153      0.6125701     -0.6177199
H       3.6398693      2.5533426     -0.4587446
H       3.9073553      0.9670157     -2.1740520
H       1.4503668     -1.5549893     -0.8675367
H       0.6654020     -3.5541593     -2.1267994
H       1.4512489     -3.9381222     -4.4596110
H       3.0322337     -2.3310898     -5.5151165
H       3.7843049     -0.3200781     -4.2601845
H      -4.0293860      2.4505876      3.9538176
C      -3.6381770      2.2840968      2.9549757
H      -5.3190515      1.8334939      1.5556693
H      -1.3447732      1.8905353      4.4924402
C      -4.2695519      1.9915856      1.7850559
H      -1.3015426      3.6200495      4.0151328
C      -1.2279620      2.5872464      3.6548751
N      -2.2868430      2.3340475      2.6813626
H      -5.7923287     -2.6522102      1.9657183
H      -4.4199089     -3.6541195      3.7982350
C      -4.7205356     -2.4510011      2.0096182
C      -3.9432618     -3.0215987      3.0480600
N      -3.2875915      1.8756749      0.8208952
H      -0.2673575      2.4198378      3.1553261
C      -2.0948564      2.0867587      1.3903463
C      -4.1366759     -1.6516847      1.0542718
C      -2.5909437     -2.7766420      3.1041266
H      -4.7214187      3.1019693     -1.0628651
H      -4.7427955     -1.2233553      0.2529684
H      -1.9802712     -3.2099278      3.8995989
C      -3.4805916      1.4038230     -0.5218414
C      -4.2782884      2.1667134     -1.4073706
C      -2.7384550     -1.3823929      1.0863702
C      -1.9574730     -1.9561854      2.1333818
H      -1.1249716      2.0584128      0.8867491
C      -2.0992209     -0.5517872      0.1208234
C      -0.5644641     -1.6667616      2.1862530
C      -2.8883084      0.2099435     -0.8840910
C      -4.4671310      1.7167440     -2.6889441
H       0.0250486     -2.0828869      3.0064827
H      -5.0787347      2.2892462     -3.3882560
C       0.0348622     -0.8672143      1.2492524
C      -0.7348324     -0.3102679      0.1847193
C      -3.0503624     -0.2428747     -2.2290701
C      -3.8523242      0.5129334     -3.1342866
O      -0.2065048      0.5098953     -0.7150853
H       1.0883521     -0.5963826      1.3217819
C      -2.4173942     -1.4307428     -2.6882719
C      -4.0099940      0.0468500     -4.4687570
H      -1.7895727     -1.9922074     -1.9946895
H      -4.6279317      0.6262600     -5.1574774
C      -2.5812538     -1.8495812     -3.9865346
C      -3.3896601     -1.1067393     -4.8845454
H      -2.0831868     -2.7564278     -4.3329496
H      -3.5130232     -1.4538472     -5.9114971
H       2.1795576     -2.8764967      1.0420270
C       4.4854585     -1.3603291      0.0639368
C       5.0103553     -0.0494975     -0.0975815
C       3.5955352     -0.0702222      1.7668398
C       2.9371248     -2.4721838      1.7293815
C       4.3677583      0.8448038      0.8393250
N       3.5676194     -1.3002357      1.1759512
O       3.0384373      0.2411728      2.8063212
O       4.6744524     -2.4236349     -0.5154927
H       5.8108008      0.1862429     -0.7929379
H       2.4563086     -2.1820349      2.6722661
H       4.9194888      1.6380029      1.3551847
H       3.6829579     -3.2563236      1.9214231
          85

O       1.0480014      2.0737322      1.3845221
C       2.1923706      2.3758123      1.1255303
O       2.8768207      3.2788197      1.8196137
C       2.3108691      3.6993708      3.0621946
C       3.3076989      4.6100026      3.7373817
C       3.0658088      1.7648872      0.0637083
N       2.3713345      0.8710874     -0.7607846
C       3.0559366      0.4054754     -1.7595203
C       2.6212075     -0.7849503     -2.5012569
C       1.7615652     -1.7163250     -1.9003613
C       1.3361046     -2.8375969     -2.6038023
C       1.7826327     -3.0557608     -3.9098237
C       2.6689579     -2.1542191     -4.5017191
C       3.0909414     -1.0270798     -3.7980586
H       1.3561149      4.2109346      2.8684940
H       2.1086225      2.7960436      3.6577874
H       2.9092215      4.9486580      4.7028130
H       3.5107539      5.4914965      3.1141190
H       4.2527606      4.0794642      3.9156317
H       0.8109516      0.6144822     -0.6163676
H       3.6359766      2.5526677     -0.4563734
H       3.9084064      0.9622555     -2.1706376
H       1.4504332     -1.5560602     -0.8675642
H       0.6664585     -3.5562610     -2.1273227
H       1.4525183     -3.9386649     -4.4601087
H       3.0328454     -2.3309885     -5.5152353
H       3.7834787     -0.3193598     -4.2597866
H      -4.0296906      2.4509920      3.9537712
C      -3.6385466      2.2843328      2.9549302
H      -5.3195375      1.8338023      1.5557505
H      -1.3447098      1.8905110      4.4921903
C      -4.2699984      1.9917599      1.7850563
H      -1.3016840      3.6200805      4.0148628
C      -1.2283044      2.5872687      3.6546188
N      -2.2872144      2.3340362      2.6812403
H      -5.7925299     -2.6525028      1.9660974
H      -4.4199157     -3.6543451      3.7985375
C      -4.7207457     -2.4512264      2.0099285
C      -3.9433762     -3.0217856      3.0483281
N      -3.2881205      1.8755515      0.8208701
H      -0.2677280      2.4199627      3.1550242
C      -2.0953935      2.0865640      1.3902301
C      -4.1370111     -1.6518814      1.0544926
C      -2.5910750     -2.7767339      3.1042459
H      -4.7216086      3.1019944     -1.0630933
H      -4.7432858     -1.2236644      0.2532430
H      -1.9802601     -3.2099915      3.8996211
C      -3.4810740      1.4036759     -0.5218940
C      -4.2785268      2.1666881     -1.4075216
C      -2.7387472     -1.3824870      1.0863705
C      -1.9577537     -1.9562528      2.1333935
H      -1.1258955      2.0582131      0.8860378
C      -2.0994680     -0.5518616      0.1207005
C      -0.5647071     -1.6670437      2.1859252
C      -2.8887513      0.2097949     -0.8840790
C      -4.4671769      1.7167454     -2.6891343
H       0.0251301     -2.0833505      3.0058155
H      -5.0785992      2.2893177     -3.3885366
C       0.0345915     -0.8678293      1.2486292
C      -0.7349125     -0.3104238      0.1841888
C      -3.0506286     -0.2429846     -2.2290817
C      -3.8524050      0.5128862     -3.1343969
O      -0.2060730      0.5098051     -0.7153465
H       1.0884877     -0.5986843      1.3202717
C      -2.4175647     -1.4308313     -2.6882120
C      -4.0098736      0.0468350     -4.4689000
H      -1.7899662     -1.9923925     -1.9945061
H      -4.6277065      0.6262615     -5.1577080
C      -2.5811933     -1.8496092     -3.9865180
C      -3.3894735     -1.1067421     -4.8846205
H      -2.0831427     -2.7564832     -4.3328851
H      -3.5127064     -1.4538387     -5.9115906
H       2.1855416     -2.8768233      1.0419113
C       4.4894939     -1.3557585      0.0611097
C       5.0014352     -0.0469708     -0.1054596
C       3.5857336     -0.0691010      1.7637848
C       2.9420226     -2.4715870      1.7300343
C       4.3355201      0.8596890      0.8248931
N       3.5687958     -1.2976011      1.1774226
O       3.0341774      0.2419289      2.8071843
O       4.6771879     -2.4248985     -0.5122489
H       5.7970672      0.1964591     -0.8036886
H       2.4606692     -2.1846035      2.6736472
H       4.9072510      1.6275838      1.3584742
H       3.6898829     -3.2542818      1.9196592
          85

O       1.0578315      2.0761951      1.3728550
C       2.2068397      2.3711623      1.1318493
O       2.8844557      3.2768309      1.8268133
C       2.3098552      3.7034680      3.0639301
C       3.3071674      4.6123183      3.7404765
C       3.0878238      1.7514090      0.0753392
N       2.3730713      0.8659460     -0.7543418
C       3.0530636      0.4033091     -1.7562157
C       2.6174560     -0.7850813     -2.5016862
C       1.7597648     -1.7176871     -1.9006989
C       1.3362044     -2.8394581     -2.6044176
C       1.7834432     -3.0561206     -3.9104199
C       2.6687260     -2.1534081     -4.5021809
C       3.0886619     -1.0256474     -3.7981958
H       1.3581034      4.2172647      2.8617074
H       2.1015070      2.8023995      3.6608323
H       2.9087689      4.9528293      4.7052350
H       3.5134247      5.4925521      3.1165192
H       4.2504370      4.0789863      3.9197611
H       0.8117823      0.6161923     -0.6135198
H       3.6368740      2.5472579     -0.4541828
H       3.9055931      0.9590624     -2.1686169
H       1.4494592     -1.5581271     -0.8675646
H       0.6680320     -3.5596954     -2.1283112
H       1.4550085     -3.9395337     -4.4609092
H       3.0335740     -2.3300559     -5.5153476
H       3.7811598     -0.3172356     -4.2589109
H      -4.0301203      2.4515840      3.9536823
C      -3.6390850      2.2846667      2.9548399
H      -5.3202719      1.8342229      1.5558684
H      -1.3439753      1.8902711      4.4913427
C      -4.2706739      1.9919925      1.7850457
H      -1.3016739      3.6200126      4.0143299
C      -1.2284900      2.5872767      3.6538564
N      -2.2877662      2.3340306      2.6809846
H      -5.7927514     -2.6528090      1.9665491
H      -4.4199474     -3.6546108      3.7989194
C      -4.7209740     -2.4514704      2.0103140
C      -3.9435308     -3.0220025      3.0486739
N      -3.2889074      1.8753715      0.8207954
H      -0.2681215      2.4203281      3.1536051
C      -2.0961397      2.0862982      1.3900027
C      -4.1373897     -1.6520868      1.0547556
C      -2.5912547     -2.7768160      3.1043895
H      -4.7220150      3.1019628     -1.0634197
H      -4.7438862     -1.2240141      0.2535914
H      -1.9802324     -3.2100310      3.8996268
C      -3.4818006      1.4034701     -0.5219877
C      -4.2789494      2.1666165     -1.4077575
C      -2.7390786     -1.3825590      1.0863180
C      -1.9581347     -1.9563470      2.1333758
H      -1.1268763      2.0580016      0.8853683
C      -2.0997240     -0.5518932      0.1204942
C      -0.5649982     -1.6676286      2.1854291
C      -2.8893009      0.2096525     -0.8841083
C      -4.4672775      1.7167390     -2.6894419
H       0.0251673     -2.0840648      3.0050104
H      -5.0784527      2.2894027     -3.3889840
C       0.0343098     -0.8689363      1.2477420
C      -0.7349652     -0.3106655      0.1835548
C      -3.0510048     -0.2431268     -2.2291236
C      -3.8525341      0.5128193     -3.1345852
O      -0.2052573      0.5097071     -0.7153675
H       1.0886458     -0.6016958      1.3184605
C      -2.4178556     -1.4309794     -2.6881310
C      -4.0096877      0.0468226     -4.4691416
H      -1.7905412     -1.9926567     -1.9942620
H      -4.6273160      0.6262975     -5.1580912
C      -2.5811437     -1.8496721     -3.9865007
C      -3.3891877     -1.1067383     -4.8847583
H      -2.0830860     -2.7565729     -4.3327868
H      -3.5121730     -1.4537834     -5.9117747
H       2.1945958     -2.8794955      1.0436001
C       4.4930197     -1.3512678      0.0583492
C       4.9887802     -0.0423486     -0.1158470
C       3.5728238     -0.0676350      1.7595699
C       2.9500921     -2.4719965      1.7316129
C       4.3067262      0.8703187      0.8131131
N       3.5706517     -1.2954977      1.1789262
O       3.0261543      0.2431152      2.8065708
O       4.6833503     -2.4258913     -0.5070802
H       5.7770639      0.2103763     -0.8190506
H       2.4687574     -2.1887181      2.6763811
H       4.8965666      1.6157458      1.3634266
H       3.7015471     -3.2518806      1.9181340
          85

O       1.0679482      2.0838798      1.3613895
C       2.2203536      2.3725577      1.1351995
O       2.8991057      3.2700270      1.8390936
C       2.3106262      3.7096629      3.0655093
C       3.3055081      4.6172424      3.7475249
C       3.0988969      1.7475424      0.0793873
N       2.3715793      0.8628344     -0.7467373
C       3.0479754      0.4009917     -1.7512190
C       2.6116544     -0.7857490     -2.4999114
C       1.7560302     -1.7210049     -1.9006117
C       1.3361720     -2.8432422     -2.6059315
C       1.7850547     -3.0571315     -3.9118142
C       2.6676085     -2.1510023     -4.5024678
C       3.0835522     -1.0226735     -3.7969669
H       1.3647377      4.2273813      2.8465207
H       2.0889884      2.8144932      3.6664348
H       2.9011013      4.9622610      4.7081534
H       3.5204001      5.4946002      3.1224520
H       4.2450907      4.0804908      3.9356928
H       0.8129169      0.6177447     -0.6094297
H       3.6321043      2.5516437     -0.4656752
H       3.8951546      0.9602569     -2.1699867
H       1.4450660     -1.5634776     -0.8673472
H       0.6699583     -3.5661050     -2.1311019
H       1.4599834     -3.9412401     -4.4631828
H       3.0336981     -2.3256970     -5.5155180
H       3.7745600     -0.3118626     -4.2562400
H      -4.0306167      2.4526523      3.9534411
C      -3.6398272      2.2852560      2.9545810
H      -5.3214718      1.8349137      1.5560888
H      -1.3413294      1.8894250      4.4888483
C      -4.2717617      1.9923761      1.7849802
H      -1.3012093      3.6196300      4.0132067
C      -1.2280312      2.5872482      3.6517402
N      -2.2885399      2.3340790      2.6802915
H      -5.7931089     -2.6530590      1.9671506
H      -4.4201374     -3.6547800      3.7995041
C      -4.7213275     -2.4517025      2.0108291
C      -3.9438439     -3.0221996      3.0491572
N      -3.2902419      1.8750933      0.8205384
H      -0.2683447      2.4215396      3.1495365
C      -2.0973233      2.0858526      1.3893841
C      -4.1379154     -1.6522894      1.0551121
C      -2.5915736     -2.7769373      3.1045386
H      -4.7229985      3.1017065     -1.0639651
H      -4.7446869     -1.2243348      0.2540867
H      -1.9802867     -3.2100951      3.8996053
C      -3.4830589      1.4031013     -0.5222059
C      -4.2798522      2.1663607     -1.4082016
C      -2.7395586     -1.3827078      1.0862139
C      -1.9586583     -1.9567014      2.1332227
H      -1.1281669      2.0574533      0.8844147
C      -2.1001522     -0.5520069      0.1202435
C      -0.5653085     -1.6689857      2.1846038
C      -2.8900707      0.2094731     -0.8841991
C      -4.4675557      1.7166649     -2.6900385
H       0.0251594     -2.0857270      3.0038055
H      -5.0782961      2.2894800     -3.3898376
C       0.0341348     -0.8709697      1.2465290
C      -0.7351156     -0.3112791      0.1829340
C      -3.0515895     -0.2433311     -2.2292438
C      -3.8527444      0.5127009     -3.1349759
O      -0.2044047      0.5094208     -0.7148106
H       1.0889187     -0.6055363      1.3166695
C      -2.4183911     -1.4312446     -2.6880312
C      -4.0093268      0.0468090     -4.4696356
H      -1.7914674     -1.9930509     -1.9939104
H      -4.6266247      0.6263552     -5.1588217
C      -2.5811187     -1.8498236     -3.9865023
C      -3.3886650     -1.1067328     -4.8850711
H      -2.0830086     -2.7567574     -4.3326252
H      -3.5111780     -1.4536662     -5.9121819
H       2.2078954     -2.8887947      1.0509619
C       4.4963901     -1.3491685      0.0574016
C       4.9757773     -0.0385653     -0.1272889
C       3.5608224     -0.0671707      1.7545240
C       2.9637814     -2.4760992      1.7355551
C       4.2921062      0.8735085      0.8063241
N       3.5735156     -1.2959379      1.1798585
O       3.0098439      0.2443817      2.7996444
O       4.6960801     -2.4270222     -0.4993808
H       5.7594903      0.2200842     -0.8331767
H       2.4850153     -2.1967315      2.6827867
H       4.8868989      1.6092319      1.3600428
H       3.7220200     -3.2504091      1.9171766
          85

O       1.0710523      2.1005572      1.3541099
C       2.2285048      2.3771804      1.1374179
O       2.9138822      3.2618279      1.8513094
C       2.3131676      3.7150125      3.0668732
C       3.3034045      4.6226560      3.7557155
C       3.0997239      1.7492830      0.0788745
N       2.3663803      0.8645314     -0.7428510
C       3.0419997      0.3994141     -1.7469859
C       2.6053228     -0.7868741     -2.4963662
C       1.7518367     -1.7256239     -1.8994916
C       1.3361639     -2.8479964     -2.6075047
C       1.7865708     -3.0581815     -3.9134645
C       2.6655666     -2.1474445     -4.5023568
C       3.0772332     -1.0192711     -3.7943521
H       1.3731066      4.2360076      2.8312971
H       2.0780999      2.8262468      3.6721407
H       2.8877655      4.9754933      4.7087244
H       3.5303931      5.4951788      3.1281594
H       4.2380977      4.0832454      3.9600162
H       0.8130696      0.6201614     -0.6070393
H       3.6508944      2.5322084     -0.4544974
H       3.8859815      0.9602209     -2.1699056
H       1.4395530     -1.5711780     -0.8660992
H       0.6720222     -3.5739499     -2.1345073
H       1.4651490     -3.9426569     -4.4663706
H       3.0324572     -2.3186160     -5.5157170
H       3.7658803     -0.3050976     -4.2519480
H      -4.0305538      2.4540193      3.9530632
C      -3.6402451      2.2860121      2.9541170
H      -5.3227135      1.8356958      1.5565576
H      -1.3374831      1.8879252      4.4851469
C      -4.2728337      1.9928340      1.7849026
H      -1.3012115      3.6190272      4.0123636
C      -1.2271411      2.5873818      3.6489983
N      -2.2890415      2.3342556      2.6790963
H      -5.7937094     -2.6529794      1.9678914
H      -4.4206252     -3.6546391      3.8002295
C      -4.7218854     -2.4517914      2.0113852
C      -3.9443659     -3.0222930      3.0496639
N      -3.2917596      1.8747877      0.8200784
H      -0.2681746      2.4243767      3.1444347
C      -2.0985403      2.0854112      1.3882510
C      -4.1385507     -1.6524835      1.0555083
C      -2.5920230     -2.7773232      3.1046143
H      -4.7244283      3.1010900     -1.0645522
H      -4.7454754     -1.2244576      0.2546361
H      -1.9805909     -3.2105176      3.8995531
C      -3.4845393      1.4025446     -0.5225136
C      -4.2810622      2.1658326     -1.4087483
C      -2.7401305     -1.3831369      1.0861827
C      -1.9591360     -1.9575283      2.1329602
H      -1.1295312      2.0569171      0.8828446
C      -2.1008068     -0.5523853      0.1202018
C      -0.5655374     -1.6708530      2.1837531
C      -2.8909115      0.2091330     -0.8842595
C      -4.4680159      1.7163925     -2.6907687
H       0.0251791     -2.0880692      3.0025353
H      -5.0783884      2.2892780     -3.3908305
C       0.0339850     -0.8730303      1.2456115
C      -0.7355471     -0.3120251      0.1827087
C      -3.0521524     -0.2436066     -2.2294059
C      -3.8529107      0.5124959     -3.1354739
O      -0.2048240      0.5092023     -0.7140041
H       1.0891098     -0.6088732      1.3158154
C      -2.4189300     -1.4315758     -2.6879969
C      -4.0088135      0.0467749     -4.4702727
H      -1.7923973     -1.9935131     -1.9936223
H      -4.6256970      0.6264608     -5.1597160
C      -2.5810930     -1.8500564     -3.9865709
C      -3.3880272     -1.1067678     -4.8855159
H      -2.0829443     -2.7570472     -4.3324889
H      -3.5100028     -1.4535660     -5.9127370
H       2.2201792     -2.8995494      1.0615652
C       4.5015106     -1.3509512      0.0579021
C       4.9689394     -0.0371696     -0.1354055
C       3.5535033     -0.0679202      1.7479784
C       2.9785743     -2.4821988      1.7406680
C       4.2871612      0.8741561      0.8010255
N       3.5788302     -1.2993242      1.1802071
O       2.9912826      0.2451521      2.7868235
O       4.7114000     -2.4303784     -0.4920456
H       5.7554267      0.2214421     -0.8381766
H       2.5047867     -2.2051490      2.6910737
H       4.8965155      1.5984349      1.3671756
H       3.7428758     -3.2517603      1.9165550
          85

O       1.0721625      2.1064809      1.3524924
C       2.2309545      2.3792694      1.1384040
O       2.9190192      3.2592519      1.8557360
C       2.3140927      3.7173457      3.0675372
C       3.3026895      4.6248904      3.7589533
C       3.0997729      1.7506725      0.0784972
N       2.3648091      0.8647350     -0.7406860
C       3.0390625      0.3993398     -1.7456148
C       2.6025479     -0.7870534     -2.4949584
C       1.7502173     -1.7273618     -1.8988689
C       1.3363295     -2.8498604     -2.6078867
C       1.7871938     -3.0585032     -3.9139540
C       2.6646701     -2.1458874     -4.5022072
C       3.0744991     -1.0176758     -3.7932747
H       1.3761774      4.2396123      2.8260587
H       2.0741127      2.8308604      3.6742772
H       2.8826652      4.9809556      4.7089060
H       3.5345582      5.4954191      3.1303459
H       4.2353650      4.0843260      3.9696597
H       0.8131790      0.6206628     -0.6055958
H       3.6493513      2.5331998     -0.4572326
H       3.8815287      0.9610320     -2.1704643
H       1.4374590     -1.5741427     -0.8654160
H       0.6731656     -3.5771406     -2.1355452
H       1.4672160     -3.9431338     -4.4674527
H       3.0318608     -2.3156544     -5.5156972
H       3.7620703     -0.3020712     -4.2502646
H      -4.0304403      2.4545158      3.9527993
C      -3.6403783      2.2862984      2.9539470
H      -5.3230383      1.8359755      1.5567847
H      -1.3360914      1.8873325      4.4837442
C      -4.2732348      1.9929863      1.7848755
H      -1.3014141      3.6188124      4.0121885
C      -1.2268606      2.5874849      3.6480251
N      -2.2892096      2.3343487      2.6786293
H      -5.7939587     -2.6528639      1.9681792
H      -4.4208638     -3.6545710      3.8004888
C      -4.7221104     -2.4517836      2.0115971
C      -3.9445940     -3.0223253      3.0498455
N      -3.2923250      1.8746647      0.8199014
H      -0.2681144      2.4256141      3.1426503
C      -2.0989895      2.0852700      1.3878063
C      -4.1387762     -1.6525387      1.0556572
C      -2.5922145     -2.7775205      3.1046350
H      -4.7250095      3.1008045     -1.0647563
H      -4.7457443     -1.2244615      0.2548453
H      -1.9807425     -3.2107576      3.8995205
C      -3.4850905      1.4023145     -0.5226288
C      -4.2815382      2.1655946     -1.4089463
C      -2.7403283     -1.3833251      1.0861789
C      -1.9593150     -1.9578931      2.1328694
H      -1.1300685      2.0567335      0.8822033
C      -2.1010226     -0.5525342      0.1202031
C      -0.5656222     -1.6716175      2.1835010
C      -2.8911922      0.2089974     -0.8842847
C      -4.4681989      1.7162591     -2.6910402
H       0.0251640     -2.0890245      3.0021365
H      -5.0784390      2.2891676     -3.3911993
C       0.0339354     -0.8738237      1.2453881
C      -0.7357006     -0.3123325      0.1827477
C      -3.0523390     -0.2437222     -2.2294707
C      -3.8529612      0.5124023     -3.1356633
O      -0.2048288      0.5091581     -0.7134944
H       1.0891778     -0.6100987      1.3156524
C      -2.4191194     -1.4317162     -2.6879948
C      -4.0086138      0.0467501     -4.4705156
H      -1.7927368     -1.9937163     -1.9935324
H      -4.6253563      0.6264830     -5.1600462
C      -2.5810778     -1.8501558     -3.9866087
C      -3.3877793     -1.1067892     -4.8856936
H      -2.0829231     -2.7571724     -4.3324494
H      -3.5095567     -1.4535355     -5.9129558
H       2.2249722     -2.9033312      1.0655162
C       4.5045351     -1.3521462      0.0583955
C       4.9678540     -0.0372836     -0.1379359
C       3.5512001     -0.0682510      1.7451630
C       2.9843972     -2.4845708      1.7426596
C       4.2857838      0.8740286      0.7985618
N       3.5817369     -1.3009787      1.1805302
O       2.9843335      0.2459495      2.7812171
O       4.7176405     -2.4320354     -0.4894074
H       5.7543887      0.2218360     -0.8405159
H       2.5124185     -2.2081150      2.6941437
H       4.8957543      1.5975199      1.3654698
H       3.7505086     -3.2527323      1.9166161
