          85

O       1.1636247      0.0036917     -2.4755594
C       1.3848643     -1.1570911     -2.1549266
O       1.6254682     -2.1063759     -3.0894724
C       1.7097819     -1.6572029     -4.4336950
C       2.0684575     -2.8464602     -5.2954312
C       1.4732024     -1.6885330     -0.8296814
N       1.2748846     -0.9099370      0.2435607
C       1.3922650     -1.4299776      1.4375116
C       1.2201927     -0.6867370      2.6814177
C       1.3534491      0.7102554      2.7588336
C       1.1488970      1.3768219      3.9629781
C       0.8315509      0.6668913      5.1226341
C       0.7296451     -0.7254192      5.0675797
C       0.9261614     -1.3931221      3.8620035
H       0.7457453     -1.2164899     -4.7352817
H       2.4683023     -0.8628116     -4.4963614
H       2.1419192     -2.5442039     -6.3487187
H       1.3037331     -3.6312226     -5.2095010
H       3.0344553     -3.2677265     -4.9843671
H       0.6458637      0.6080291     -0.0665780
H       1.5921473     -2.7697722     -0.7204387
H       1.5087283     -2.5203790      1.5331761
H       1.6252245      1.2656292      1.8609366
H       1.2465927      2.4637310      3.9989000
H       0.6745522      1.1931861      6.0657860
H       0.4923920     -1.2925361      5.9698967
H       0.8375595     -2.4817482      3.8194416
H      -3.2645822      4.2023077     -2.4078420
C      -2.7069247      3.2735533     -2.3430503
H      -4.0049204      1.6720936     -1.4842719
H       0.4230264      3.8984083     -3.4805077
C      -3.0713007      2.0409150     -1.8987303
H      -0.5351600      5.0799432     -2.5365410
C      -0.5844965      4.2746952     -3.2781117
N      -1.3888386      3.1799647     -2.7498433
H      -6.1163722     -0.2144769      2.2630258
H      -6.1863075      1.8397073      3.6881393
C      -5.2632004      0.4659356      2.2747028
C      -5.3057208      1.6296895      3.0794723
N      -1.9680862      1.2222788     -2.0495082
H      -1.0331906      4.6467771     -4.2060965
C      -0.9619623      1.9365102     -2.5588384
C      -4.1567892      0.1824949      1.5061887
C      -4.2363789      2.4944052      3.0794141
H      -1.8219057     -0.9105620     -3.6201354
H      -4.1435143     -0.7196953      0.8933506
H      -4.2573107      3.4040373      3.6838847
C      -1.8635576     -0.1387117     -1.5958407
C      -1.8030145     -1.1701540     -2.5611938
C      -3.0247832      1.0479670      1.4996467
C      -3.0849989      2.2334977      2.2902094
H       0.0389121      1.5321666     -2.7245829
C      -1.8626341      0.7861291      0.7010952
C      -1.9952080      3.1485166      2.2456347
C      -1.8328340     -0.3734818     -0.2357221
C      -1.7141142     -2.4711185     -2.1418955
H      -2.0462991      4.0585712      2.8472008
H      -1.6531379     -3.2826322     -2.8689757
C      -0.9027477      2.8939017      1.4658695
C      -0.8163304      1.7035164      0.6864819
C      -1.7665878     -1.7345534      0.2084181
C      -1.7059603     -2.7847993     -0.7535170
O       0.2808305      1.5616041     -0.0681936
H      -0.0556329      3.5803757      1.4239978
C      -1.7245420     -2.0654671      1.5902295
C      -1.6195743     -4.1307724     -0.3046339
H      -1.7368713     -1.2602032      2.3268214
H      -1.5704459     -4.9284349     -1.0485464
C      -1.6458934     -3.3771288      1.9945356
C      -1.5925800     -4.4215611      1.0384481
H      -1.6118734     -3.6161591      3.0587003
H      -1.5256586     -5.4579254      1.3732439
H       2.7627075      2.1165753     -0.2208021
C       4.1451892     -0.3244344      1.2506340
C       4.1961875     -1.7408277      0.8135501
C       4.0141756     -0.3733879     -1.0391309
C       3.7963326      1.8627705      0.0543380
C       4.0943438     -1.7767879     -0.5346160
N       3.9732402      0.4336336      0.0884847
O       4.0329160      0.0375737     -2.1801370
O       4.2716415      0.1451548      2.3608142
H       4.3354783     -2.5595407      1.5153861
H       4.4859378      2.3120881     -0.6714582
H       4.1670835     -2.6249099     -1.2122584
H       4.0121495      2.2484615      1.0582680
          85

O       1.1605679      0.0010758     -2.4776193
C       1.3839199     -1.1587968     -2.1557799
O       1.6260147     -2.1088864     -3.0892163
C       1.7093189     -1.6611845     -4.4340159
C       2.0684838     -2.8511918     -5.2945227
C       1.4737772     -1.6888273     -0.8298897
N       1.2745035     -0.9099112      0.2429060
C       1.3924185     -1.4295901      1.4369457
C       1.2204713     -0.6859579      2.6806802
C       1.3554769      0.7108532      2.7577909
C       1.1508459      1.3780254      3.9615863
C       0.8316027      0.6688214      5.1211595
C       0.7280566     -0.7233766      5.0664434
C       0.9247768     -1.3916769      3.8612267
H       0.7448092     -1.2214803     -4.7356611
H       2.4672477     -0.8662519     -4.4979481
H       2.1414675     -2.5500254     -6.3481900
H       1.3042027     -3.6363318     -5.2074868
H       3.0348588     -3.2715839     -4.9832562
H       0.6463468      0.6077373     -0.0668868
H       1.5926418     -2.7703983     -0.7199595
H       1.5087639     -2.5199602      1.5329068
H       1.6284711      1.2655728      1.8598542
H       1.2499060      2.4648167      3.9973022
H       0.6744559      1.1955859      6.0640242
H       0.4893833     -1.2899311      5.9687357
H       0.8349448     -2.4802100      3.8189170
H      -3.2651772      4.2027390     -2.4073770
C      -2.7073454      3.2738916     -2.3425915
H      -4.0057878      1.6718375     -1.4853255
H       0.4232186      3.8996087     -3.4778492
C      -3.0718340      2.0410256     -1.8990651
H      -0.5355362      5.0806170     -2.5337958
C      -0.5844331      4.2757371     -3.2757982
N      -1.3889735      3.1806793     -2.7485194
H      -6.1160487     -0.2145194      2.2626884
H      -6.1857069      1.8393154      3.6883254
C      -5.2627908      0.4657834      2.2745289
C      -5.3051543      1.6293359      3.0795950
N      -1.9684092      1.2226060     -2.0494553
H      -1.0326630      4.6482621     -4.2038311
C      -0.9620168      1.9372101     -2.5577526
C      -4.1564178      0.1823943      1.5059367
C      -4.2356894      2.4939049      3.0797492
H      -1.8233139     -0.9099523     -3.6206100
H      -4.1432569     -0.7196526      0.8928837
H      -4.2564916      3.4033825      3.6844584
C      -1.8640176     -0.1385240     -1.5961483
C      -1.8039769     -1.1697814     -2.5617395
C      -3.0242999      1.0477237      1.4995881
C      -3.0843581      2.2330540      2.2904629
H       0.0390937      1.5332203     -2.7229312
C      -1.8622060      0.7859137      0.7009438
C      -1.9944394      3.1479320      2.2460979
C      -1.8327621     -0.3735390     -0.2361050
C      -1.7146638     -2.4708085     -2.1427602
H      -2.0453861      4.0578365      2.8479058
H      -1.6538806     -3.2821779     -2.8700188
C      -0.9020468      2.8933623      1.4662355
C      -0.8157366      1.7031568      0.6865133
C      -1.7663018     -1.7347144      0.2077348
C      -1.7056853     -2.7847490     -0.7544306
O       0.2813710      1.5614129     -0.0681873
H      -0.0548306      3.5797239      1.4245221
C      -1.7237803     -2.0659027      1.5894571
C      -1.6183732     -4.1307608     -0.3058591
H      -1.7363108     -1.2607924      2.3262139
H      -1.5691079     -4.9282442     -1.0499551
C      -1.6442923     -3.3776088      1.9934711
C      -1.5906227     -4.4218069      1.0371556
H      -1.6098463     -3.6168539      3.0575739
H      -1.5229134     -5.4581957      1.3717150
H       2.7696053      2.1226088     -0.2134910
C       4.1469030     -0.3268557      1.2523408
C       4.1943997     -1.7416459      0.8109632
C       4.0118901     -0.3683606     -1.0374015
C       3.8022163      1.8650634      0.0628787
C       4.0898007     -1.7733354     -0.5373442
N       3.9747857      0.4351340      0.0926507
O       4.0290244      0.0459791     -2.1771335
O       4.2758797      0.1393459      2.3637793
H       4.3334352     -2.5627025      1.5101056
H       4.4944069      2.3149661     -0.6602438
H       4.1618211     -2.6192292     -1.2177016
H       4.0174338      2.2468422      1.0684547
          85

O       1.1517712     -0.0054129     -2.4833756
C       1.3800591     -1.1628455     -2.1582730
O       1.6270067     -2.1147819     -3.0887801
C       1.7071937     -1.6711330     -4.4350396
C       2.0688336     -2.8627922     -5.2922345
C       1.4720965     -1.6897758     -0.8307653
N       1.2716630     -0.9101800      0.2411911
C       1.3914620     -1.4286878      1.4354427
C       1.2208466     -0.6840337      2.6788857
C       1.3601272      0.7123281      2.7554777
C       1.1553139      1.3807516      3.9585633
C       0.8314725      0.6731448      5.1178421
C       0.7241418     -0.7187779      5.0637595
C       0.9214277     -1.3883131      3.8593136
H       0.7410231     -1.2351983     -4.7367963
H       2.4626302     -0.8740506     -4.5024785
H       2.1390704     -2.5648648     -6.3470317
H       1.3071594     -3.6500456     -5.2012863
H       3.0370713     -3.2791778     -4.9812497
H       0.6472193      0.6071048     -0.0677819
H       1.5920584     -2.7727402     -0.7193993
H       1.5076572     -2.5189676      1.5322113
H       1.6358169      1.2656128      1.8574575
H       1.2575698      2.4672567      3.9939358
H       0.6738259      1.2009198      6.0600583
H       0.4820643     -1.2841348      5.9658937
H       0.8286523     -2.4766133      3.8174543
H      -3.2665102      4.2035169     -2.4062015
C      -2.7084984      3.2747725     -2.3414827
H      -4.0077601      1.6714119     -1.4879274
H       0.4234865      3.9022306     -3.4717852
C      -3.0732928      2.0413270     -1.8998434
H      -0.5361814      5.0819943     -2.5270910
C      -0.5843529      4.2781474     -3.2702665
N      -1.3894548      3.1823588     -2.7454080
H      -6.1154473     -0.2145193      2.2619114
H      -6.1843095      1.8383912      3.6889432
C      -5.2619614      0.4654937      2.2741495
C      -5.3038794      1.6285123      3.0799999
N      -1.9693856      1.2233777     -2.0493978
H      -1.0315936      4.6520079     -4.1982410
C      -0.9623172      1.9388488     -2.5552126
C      -4.1557196      0.1822345      1.5053005
C      -4.2340892      2.4926914      3.0806438
H      -1.8268755     -0.9085430     -3.6217870
H      -4.1429025     -0.7194364      0.8916804
H      -4.2545134      3.4017695      3.6859707
C      -1.8653904     -0.1380925     -1.5969422
C      -1.8065357     -1.1689337     -2.5630857
C      -3.0232825      1.0471663      1.4994119
C      -3.0829228      2.2319778      2.2910951
H       0.0394299      1.5358198     -2.7188091
C      -1.8613232      0.7854026      0.7005193
C      -1.9926798      3.1464943      2.2472436
C      -1.8328380     -0.3736819     -0.2370835
C      -1.7161093     -2.4700913     -2.1448553
H      -2.0432430      4.0560148      2.8496696
H      -1.6556692     -3.2811113     -2.8725362
C      -0.9004810      2.8920345      1.4671209
C      -0.8144227      1.7023006      0.6865359
C      -1.7658802     -1.7351124      0.2060587
C      -1.7051960     -2.7846460     -0.7566357
O       0.2825911      1.5610945     -0.0681702
H      -0.0530052      3.5781066      1.4257942
C      -1.7221289     -2.0669238      1.5875638
C      -1.6155098     -4.1307216     -0.3087934
H      -1.7351285     -1.2621651      2.3247008
H      -1.5658036     -4.9277825     -1.0533140
C      -1.6405649     -3.3787273      1.9909129
C      -1.5859547     -4.4223671      1.0340698
H      -1.6050874     -3.6184517      3.0548770
H      -1.5162757     -5.4588043      1.3680715
H       2.7834036      2.1357941     -0.1965491
C       4.1497246     -0.3334837      1.2559821
C       4.1895114     -1.7444266      0.8043828
C       4.0044655     -0.3574007     -1.0334307
C       3.8159897      1.8704933      0.0819310
C       4.0776843     -1.7658893     -0.5441999
N       3.9762873      0.4373421      0.1022098
O       4.0184229      0.0648992     -2.1700846
O       4.2852744      0.1252574      2.3703181
H       4.3259845     -2.5708645      1.4978848
H       4.5132745      2.3224736     -0.6373070
H       4.1485446     -2.6057867     -1.2312158
H       4.0320273      2.2430568      1.0908662
          85

O       1.1437425     -0.0120286     -2.4879644
C       1.3779992     -1.1671016     -2.1598684
O       1.6305188     -2.1203289     -3.0876809
C       1.7062067     -1.6802893     -4.4353094
C       2.0689982     -2.8731622     -5.2903092
C       1.4720879     -1.6912397     -0.8309514
N       1.2704417     -0.9101585      0.2400582
C       1.3923637     -1.4280550      1.4344472
C       1.2217079     -0.6826405      2.6775658
C       1.3647208      0.7133217      2.7537061
C       1.1590296      1.3828782      3.9560442
C       0.8304051      0.6767129      5.1148487
C       0.7196122     -0.7149556      5.0612826
C       0.9180843     -1.3856207      3.8576598
H       0.7381037     -1.2480075     -4.7355952
H       2.4589595     -0.8811127     -4.5068660
H       2.1349165     -2.5779467     -6.3460596
H       1.3101069     -3.6624353     -5.1948166
H       3.0394188     -3.2857216     -4.9814226
H       0.6481924      0.6060511     -0.0678681
H       1.5871259     -2.7720822     -0.7182306
H       1.5083656     -2.5182822      1.5316427
H       1.6434520      1.2653258      1.8557767
H       1.2641545      2.4691186      3.9911940
H       0.6718368      1.2054002      6.0563985
H       0.4739208     -1.2791975      5.9631369
H       0.8226579     -2.4736992      3.8161247
H      -3.2676473      4.2043819     -2.4050405
C      -2.7095928      3.2756506     -2.3404957
H      -4.0096964      1.6712910     -1.4900978
H       0.4235905      3.9044669     -3.4667269
C      -3.0747746      2.0417295     -1.9005054
H      -0.5367439      5.0830810     -2.5212699
C      -0.5843793      4.2802145     -3.2655417
N      -1.3900170      3.1838071     -2.7428032
H      -6.1150362     -0.2144005      2.2611971
H      -6.1830254      1.8375673      3.6896481
C      -5.2613246      0.4653241      2.2737947
C      -5.3027498      1.6278027      3.0804418
N      -1.9705656      1.2240697     -2.0494487
H      -1.0308189      4.6553301     -4.1933932
C      -0.9629224      1.9401803     -2.5532432
C      -4.1552624      0.1822245      1.5046145
C      -4.2326501      2.4916127      3.0815207
H      -1.8302190     -0.9072528     -3.6229284
H      -4.1428409     -0.7190214      0.8903568
H      -4.2526788      3.4002862      3.6874715
C      -1.8668254     -0.1376884     -1.5977423
C      -1.8088036     -1.1681482     -2.5643813
C      -3.0225079      1.0467496      1.4991663
C      -3.0816724      2.2310368      2.2916661
H       0.0390496      1.5375540     -2.7160175
C      -1.8606811      0.7849939      0.7000632
C      -1.9910542      3.1451346      2.2483305
C      -1.8330179     -0.3737457     -0.2380494
C      -1.7169720     -2.4693917     -2.1468292
H      -2.0412036      4.0542862      2.8513519
H      -1.6567078     -3.2800958     -2.8748820
C      -0.8990061      2.8907025      1.4680143
C      -0.8132437      1.7014089      0.6866108
C      -1.7652714     -1.7353862      0.2044672
C      -1.7041040     -2.7844564     -0.7587005
O       0.2837591      1.5604242     -0.0679759
H      -0.0512356      3.5764409      1.4271153
C      -1.7205887     -2.0677513      1.5857980
C      -1.6117485     -4.1305546     -0.3115050
H      -1.7344930     -1.2633274      2.3232898
H      -1.5612534     -4.9272117     -1.0564014
C      -1.6367300     -3.3796204      1.9885557
C      -1.5806046     -4.4227318      1.0312264
H      -1.6005027     -3.6197697      3.0523962
H      -1.5087625     -5.4591794      1.3647294
H       2.8093339      2.1581435     -0.1804470
C       4.1521751     -0.3379816      1.2587245
C       4.1831352     -1.7460611      0.7981628
C       3.9963741     -0.3462182     -1.0301162
C       3.8351388      1.8756463      0.1003835
C       4.0658080     -1.7589455     -0.5502503
N       3.9756498      0.4416258      0.1110007
O       4.0070085      0.0833848     -2.1640254
O       4.2960564      0.1130101      2.3749649
H       4.3216417     -2.5775201      1.4851289
H       4.5416473      2.3221117     -0.6120304
H       4.1315723     -2.5944077     -1.2433421
H       4.0515442      2.2378822      1.1129267
          85

O       1.1353468     -0.0190228     -2.4916144
C       1.3761730     -1.1718488     -2.1610828
O       1.6356582     -2.1254568     -3.0862479
C       1.7058882     -1.6883641     -4.4354506
C       2.0686911     -2.8823532     -5.2888203
C       1.4734699     -1.6923887     -0.8303771
N       1.2677435     -0.9109795      0.2391060
C       1.3927594     -1.4277623      1.4336570
C       1.2224387     -0.6816358      2.6766153
C       1.3690109      0.7138788      2.7522866
C       1.1620604      1.3844259      3.9538913
C       0.8285880      0.6794668      5.1120374
C       0.7148633     -0.7119761      5.0590144
C       0.9149190     -1.3836205      3.8562076
H       0.7356175     -1.2590795     -4.7333787
H       2.4565092     -0.8873650     -4.5112190
H       2.1293147     -2.5894458     -6.3456139
H       1.3122808     -3.6734841     -5.1881443
H       3.0416502     -3.2915420     -4.9830419
H       0.6484008      0.6048565     -0.0680916
H       1.5921045     -2.7760108     -0.7156589
H       1.5084396     -2.5178869      1.5315628
H       1.6506558      1.2646504      1.8544422
H       1.2697245      2.4704117      3.9889870
H       0.6686753      1.2089832      6.0528940
H       0.4656471     -1.2751755      5.9605432
H       0.8172192     -2.4714934      3.8148245
H      -3.2686458      4.2052652     -2.4039415
C      -2.7106165      3.2765016     -2.3396433
H      -4.0115188      1.6713274     -1.4920088
H       0.4235312      3.9062065     -3.4627483
C      -3.0761983      2.0421635     -1.9011409
H      -0.5369044      5.0838125     -2.5161322
C      -0.5844228      4.2819653     -3.2615095
N      -1.3906244      3.1850806     -2.7406367
H      -6.1148851     -0.2141994      2.2608164
H      -6.1818567      1.8368298      3.6906754
C      -5.2609633      0.4652585      2.2736371
C      -5.3018157      1.6272007      3.0810831
N      -1.9718123      1.2246674     -2.0496675
H      -1.0303341      4.6584415     -4.1890589
C      -0.9636728      1.9413197     -2.5517243
C      -4.1551799      0.1823204      1.5039761
C      -4.2314287      2.4906614      3.0824463
H      -1.8330345     -0.9061453     -3.6240772
H      -4.1431824     -0.7185531      0.8891507
H      -4.2509858      3.3989295      3.6890221
C      -1.8683594     -0.1373499     -1.5986078
C      -1.8107086     -1.1674815     -2.5656638
C      -3.0221086      1.0464486      1.4988423
C      -3.0807286      2.2302144      2.2921572
H       0.0384663      1.5391711     -2.7138771
C      -1.8604198      0.7846473      0.6995157
C      -1.9897109      3.1438531      2.2493204
C      -1.8335816     -0.3738002     -0.2390616
C      -1.7172482     -2.4687698     -2.1486995
H      -2.0394141      4.0526501      2.8529153
H      -1.6567405     -3.2791845     -2.8770648
C      -0.8977862      2.8893677      1.4688731
C      -0.8123620      1.7004999      0.6867004
C      -1.7650020     -1.7356182      0.2029154
C      -1.7027827     -2.7842647     -0.7606384
O       0.2847936      1.5596548     -0.0676103
H      -0.0496784      3.5747210      1.4284408
C      -1.7196455     -2.0684354      1.5840913
C      -1.6074679     -4.1303234     -0.3139829
H      -1.7348782     -1.2643192      2.3218960
H      -1.5557560     -4.9266102     -1.0591936
C      -1.6331357     -3.3802926      1.9863493
C      -1.5749798     -4.4229255      1.0286318
H      -1.5962998     -3.6207884      3.0500917
H      -1.5007124     -5.4593326      1.3617304
H       2.8327250      2.1775949     -0.1644484
C       4.1540149     -0.3428819      1.2609669
C       4.1711412     -1.7472955      0.7926393
C       3.9874229     -0.3362099     -1.0276307
C       3.8557182      1.8811669      0.1153830
C       4.0457592     -1.7512851     -0.5562952
N       3.9786297      0.4448080      0.1177698
O       3.9947205      0.0999858     -2.1591647
O       4.3062311      0.1023057      2.3787198
H       4.3075716     -2.5837093      1.4738291
H       4.5679308      2.3242834     -0.5942132
H       4.1082423     -2.5829656     -1.2545163
H       4.0761254      2.2346936      1.1302008
          85

O       1.1266083     -0.0263613     -2.4938509
C       1.3764231     -1.1761183     -2.1617925
O       1.6447603     -2.1294119     -3.0842268
C       1.7052158     -1.6955145     -4.4349922
C       2.0675893     -2.8897863     -5.2880098
C       1.4772679     -1.6944829     -0.8293520
N       1.2665772     -0.9109414      0.2388143
C       1.3949653     -1.4273343      1.4330296
C       1.2240810     -0.6809252      2.6759944
C       1.3735851      0.7141865      2.7514222
C       1.1645896      1.3854426      3.9523421
C       0.8260502      0.6813880      5.1095601
C       0.7099439     -0.7098501      5.0567867
C       0.9124196     -1.3822021      3.8547765
H       0.7313423     -1.2710925     -4.7275464
H       2.4518103     -0.8914380     -4.5169815
H       2.1190039     -2.5989443     -6.3458143
H       1.3156169     -3.6841209     -5.1800492
H       3.0446441     -3.2937602     -4.9886260
H       0.6489412      0.6034283     -0.0676603
H       1.5847660     -2.7747755     -0.7140248
H       1.5114245     -2.5172769      1.5312093
H       1.6582958      1.2639525      1.8538425
H       1.2743411      2.4711995      3.9876186
H       0.6641934      1.2115158      6.0497406
H       0.4569819     -1.2722474      5.9577572
H       0.8128975     -2.4698957      3.8133457
H      -3.2693065      4.2062661     -2.4027717
C      -2.7114660      3.2773627     -2.3388526
H      -4.0132459      1.6716588     -1.4935740
H       0.4234770      3.9074401     -3.4596964
C      -3.0775674      2.0426939     -1.9017006
H      -0.5366474      5.0841327     -2.5116346
C      -0.5843661      4.2833229     -3.2581149
N      -1.3911859      3.1861004     -2.7388998
H      -6.1150293     -0.2139127      2.2609333
H      -6.1807532      1.8362185      3.6921511
C      -5.2609051      0.4652917      2.2737978
C      -5.3010579      1.6267195      3.0820158
N      -1.9732001      1.2251450     -2.0500990
H      -1.0299524      4.6612469     -4.1852278
C      -0.9645613      1.9421382     -2.5507015
C      -4.1555365      0.1825111      1.5034491
C      -4.2303907      2.4898441      3.0834328
H      -1.8352398     -0.9052516     -3.6252719
H      -4.1440627     -0.7180070      0.8880704
H      -4.2493718      3.3977237      3.6906101
C      -1.8699866     -0.1370774     -1.5995854
C      -1.8121440     -1.1669342     -2.5669655
C      -3.0221334      1.0462245      1.4984344
C      -3.0800890      2.2294898      2.2925476
H       0.0376317      1.5403057     -2.7124962
C      -1.8606200      0.7843236      0.6988481
C      -1.9886172      3.1426081      2.2501058
C      -1.8344188     -0.3738257     -0.2401584
C      -1.7167872     -2.4682211     -2.1504847
H      -2.0378125      4.0510892      2.8542214
H      -1.6557424     -3.2783889     -2.8790949
C      -0.8968220      2.8879366      1.4695703
C      -0.8117692      1.6994297      0.6866998
C      -1.7647409     -1.7357507      0.2013830
C      -1.7010684     -2.7840390     -0.7624631
O       0.2855423      1.5585623     -0.0671876
H      -0.0483102      3.5728177      1.4295648
C      -1.7190658     -2.0688721      1.5824565
C      -1.6029628     -4.1300161     -0.3161895
H      -1.7357896     -1.2649840      2.3204810
H      -1.5497275     -4.9260003     -1.0616155
C      -1.6302067     -3.3806810      1.9843472
C      -1.5697782     -4.4229155      1.0263436
H      -1.5931712     -3.6214463      3.0480204
H      -1.4933457     -5.4592543      1.3591552
H       2.8628502      2.2009323     -0.1531221
C       4.1546395     -0.3467012      1.2622035
C       4.1575711     -1.7480743      0.7882641
C       3.9768259     -0.3271957     -1.0256435
C       3.8797278      1.8861505      0.1276600
C       4.0238034     -1.7459999     -0.5612509
N       3.9791004      0.4484197      0.1231529
O       3.9821401      0.1143894     -2.1552802
O       4.3165594      0.0937113      2.3808137
H       4.2925762     -2.5883822      1.4650242
H       4.6006152      2.3214591     -0.5779142
H       4.0852087     -2.5727560     -1.2638474
H       4.1031634      2.2307641      1.1448079
          85

O       1.1191744     -0.0341152     -2.4945558
C       1.3789765     -1.1809653     -2.1615124
O       1.6568567     -2.1327199     -3.0819963
C       1.7042703     -1.7015500     -4.4345042
C       2.0658049     -2.8955356     -5.2881559
C       1.4845440     -1.6950867     -0.8271903
N       1.2660763     -0.9120189      0.2385491
C       1.3994755     -1.4271435      1.4329993
C       1.2269141     -0.6803418      2.6757675
C       1.3786335      0.7144153      2.7511001
C       1.1668782      1.3860774      3.9513880
C       0.8230576      0.6825131      5.1073340
C       0.7049800     -0.7085578      5.0545872
C       0.9107667     -1.3813068      3.8533965
H       0.7256837     -1.2830168     -4.7194860
H       2.4456994     -0.8935024     -4.5240428
H       2.1054971     -2.6064677     -6.3469423
H       1.3194399     -3.6939117     -5.1715542
H       3.0479760     -3.2932933     -4.9973394
H       0.6488668      0.6017426     -0.0675853
H       1.5979955     -2.7791748     -0.7092169
H       1.5160143     -2.5168803      1.5319415
H       1.6662811      1.2634202      1.8538855
H       1.2782227      2.4716470      3.9871725
H       0.6586306      1.2130398      6.0468488
H       0.4479644     -1.2703327      5.9547843
H       0.8098246     -2.4688431      3.8115315
H      -3.2697063      4.2073919     -2.4014959
C      -2.7121922      3.2782564     -2.3380833
H      -4.0148914      1.6722673     -1.4947571
H       0.4233999      3.9080608     -3.4573344
C      -3.0789024      2.0433257     -1.9021471
H      -0.5360601      5.0841450     -2.5078473
C      -0.5842257      4.2843061     -3.2553402
N      -1.3917539      3.1869175     -2.7375561
H      -6.1154323     -0.2135316      2.2615120
H      -6.1797376      1.8358122      3.6939226
C      -5.2611093      0.4654271      2.2742386
C      -5.3004634      1.6264072      3.0831476
N      -1.9747343      1.2255331     -2.0507022
H      -1.0295291      4.6636450     -4.1820074
C      -0.9656263      1.9426754     -2.5501626
C      -4.1562478      0.1827324      1.5030960
C      -4.2295199      2.4891960      3.0844413
H      -1.8369599     -0.9045156     -3.6264684
H      -4.1453193     -0.7175137      0.8872832
H      -4.2478437      3.3967181      3.6921752
C      -1.8716334     -0.1368445     -1.6006225
C      -1.8130775     -1.1664633     -2.5682460
C      -3.0225304      1.0460556      1.4979927
C      -3.0797138      2.2288771      2.2928298
H       0.0365758      1.5410836     -2.7117670
C      -1.8612340      0.7840286      0.6981031
C      -1.9877649      3.1414385      2.2506408
C      -1.8354153     -0.3738092     -0.2413023
C      -1.7156113     -2.4677025     -2.1521494
H      -2.0364053      4.0496570      2.8551999
H      -1.6538542     -3.2776691     -2.8809424
C      -0.8961017      2.8864855      1.4700193
C      -0.8115208      1.6982536      0.6866047
C      -1.7642984     -1.7357494      0.1998933
C      -1.6988896     -2.7837417     -0.7641509
O       0.2859348      1.5571093     -0.0669239
H      -0.0471693      3.5708689      1.4303879
C      -1.7187348     -2.0690147      1.5809197
C      -1.5985412     -4.1296216     -0.3180903
H      -1.7370755     -1.2652903      2.3190917
H      -1.5438251     -4.9254020     -1.0636260
C      -1.6280410     -3.3807457      1.9825830
C      -1.5654347     -4.4227048      1.0244013
H      -1.5913044     -3.6217052      3.0462232
H      -1.4874722     -5.4589769      1.3570609
H       2.8910168      2.2218183     -0.1443741
C       4.1543650     -0.3498319      1.2631727
C       4.1400835     -1.7480440      0.7846975
C       3.9663106     -0.3193523     -1.0243319
C       3.9024526      1.8905387      0.1372142
C       3.9981620     -1.7391779     -0.5652709
N       3.9803893      0.4515226      0.1273349
O       3.9708498      0.1267034     -2.1524218
O       4.3266169      0.0870324      2.3818910
H       4.2760398     -2.5922147      1.4559830
H       4.6310436      2.3184771     -0.5650988
H       4.0563047     -2.5643219     -1.2720031
H       4.1288259      2.2277490      1.1562040
          85

O       1.1130121     -0.0418234     -2.4935535
C       1.3845126     -1.1852300     -2.1612602
O       1.6699565     -2.1353702     -3.0796472
C       1.7024829     -1.7067322     -4.4338953
C       2.0636130     -2.8995559     -5.2890665
C       1.4999655     -1.6974284     -0.8243023
N       1.2686718     -0.9114281      0.2390288
C       1.4056878     -1.4262396      1.4327201
C       1.2298769     -0.6796727      2.6756423
C       1.3831625      0.7146934      2.7509375
C       1.1689187      1.3863724      3.9508639
C       0.8206619      0.6827867      5.1054427
C       0.7003991     -0.7080659      5.0523075
C       0.9091734     -1.3807993      3.8516388
H       0.7185118     -1.2949713     -4.7099578
H       2.4377887     -0.8939562     -4.5311620
H       2.0910801     -2.6113105     -6.3484660
H       1.3234997     -3.7025284     -5.1643885
H       3.0511640     -3.2906293     -5.0074817
H       0.6492647      0.6002632     -0.0671609
H       1.5940758     -2.7780836     -0.7065341
H       1.5243333     -2.5156102      1.5320855
H       1.6735810      1.2631281      1.8541781
H       1.2816600      2.4717442      3.9874839
H       0.6543017      1.2133476      6.0445998
H       0.4396689     -1.2695037      5.9516149
H       0.8070663     -2.4681813      3.8090323
H      -3.2699046      4.2086120     -2.4002433
C      -2.7128346      3.2791714     -2.3373758
H      -4.0165041      1.6731510     -1.4956056
H       0.4232550      3.9085032     -3.4555049
C      -3.0802351      2.0440746     -1.9024725
H      -0.5355888      5.0840370     -2.5047064
C      -0.5841639      4.2850763     -3.2531061
N      -1.3923358      3.1875653     -2.7365356
H      -6.1160721     -0.2130977      2.2623502
H      -6.1788984      1.8355654      3.6957903
C      -5.2615521      0.4656167      2.2748471
C      -5.3000660      1.6262101      3.0843627
N      -1.9763985      1.2258845     -2.0513448
H      -1.0292756      4.6656563     -4.1793494
C      -0.9668410      1.9430187     -2.5499339
C      -4.1572210      0.1829473      1.5029127
C      -4.2288458      2.4886678      3.0854633
H      -1.8389159     -0.9039157     -3.6275751
H      -4.1468207     -0.7171088      0.8867927
H      -4.2465037      3.3958637      3.6937029
C      -1.8734024     -0.1365884     -1.6016155
C      -1.8140539     -1.1660198     -2.5694093
C      -3.0232311      1.0459119      1.4976149
C      -3.0795683      2.2283497      2.2930831
H       0.0352951      1.5417911     -2.7117107
C      -1.8622042      0.7837881      0.6973659
C      -1.9871489      3.1403683      2.2509582
C      -1.8365295     -0.3737128     -0.2423768
C      -1.7144907     -2.4672037     -2.1536163
H      -2.0351993      4.0483796      2.8558771
H      -1.6521848     -3.2770445     -2.8825273
C      -0.8956843      2.8851316      1.4701442
C      -0.8116571      1.6970994      0.6863139
C      -1.7638186     -1.7355883      0.1985630
C      -1.6967610     -2.7833512     -0.7656209
O       0.2857176      1.5555282     -0.0671206
H      -0.0463830      3.5690682      1.4306925
C      -1.7188064     -2.0689193      1.5795978
C      -1.5948398     -4.1291749     -0.3196498
H      -1.7388412     -1.2653184      2.3178468
H      -1.5388646     -4.9248262     -1.0652192
C      -1.6269868     -3.3805654      1.9811038
C      -1.5624521     -4.4223553      1.0228073
H      -1.5910553     -3.6217173      3.0447258
H      -1.4836203     -5.4585682      1.3554184
H       2.9166498      2.2401436     -0.1383442
C       4.1530404     -0.3535586      1.2637240
C       4.1217072     -1.7476758      0.7830341
C       3.9549518     -0.3127369     -1.0234545
C       3.9227754      1.8936702      0.1442299
C       3.9678301     -1.7349260     -0.5691124
N       3.9803191      0.4539434      0.1296461
O       3.9603608      0.1366765     -2.1506490
O       4.3355760      0.0823133      2.3820380
H       4.2554500     -2.5947623      1.4512497
H       4.6585665      2.3145855     -0.5550090
H       4.0356872     -2.5548319     -1.2782509
H       4.1515047      2.2239121      1.1649705
          85

O       1.1086686     -0.0497773     -2.4902169
C       1.3924808     -1.1899006     -2.1600110
O       1.6817819     -2.1378902     -3.0778901
C       1.6999923     -1.7108979     -4.4334930
C       2.0614073     -2.9022344     -5.2904178
C       1.5218118     -1.6965636     -0.8207036
N       1.2729001     -0.9110560      0.2387572
C       1.4127599     -1.4251923      1.4324856
C       1.2318359     -0.6788062      2.6752508
C       1.3863652      0.7151842      2.7507298
C       1.1706822      1.3865378      3.9506831
C       0.8193585      0.6824849      5.1039986
C       0.6966355     -0.7081217      5.0501422
C       0.9071579     -1.3804278      3.8495822
H       0.7109589     -1.3059331     -4.7008272
H       2.4290646     -0.8934334     -4.5374404
H       2.0787084     -2.6143547     -6.3500983
H       1.3270764     -3.7094712     -5.1595056
H       3.0534865     -3.2871665     -5.0165345
H       0.6492367      0.5989140     -0.0676286
H       1.6119590     -2.7814292     -0.7000409
H       1.5319524     -2.5142370      1.5326726
H       1.6791152      1.2632366      1.8544144
H       1.2848487      2.4716967      3.9884317
H       0.6522519      1.2127374      6.0432034
H       0.4331207     -1.2694544      5.9486734
H       0.8040437     -2.4676554      3.8059345
H      -3.2700971      4.2097958     -2.3991256
C      -2.7134616      3.2800593     -2.3367624
H      -4.0180043      1.6740862     -1.4962457
H       0.4230357      3.9088914     -3.4540567
C      -3.0814986      2.0448443     -1.9027181
H      -0.5352696      5.0839663     -2.5021509
C      -0.5842056      4.2857500     -3.2513152
N      -1.3929391      3.1881497     -2.7357420
H      -6.1168123     -0.2126829      2.2631836
H      -6.1782643      1.8353809      3.6975162
C      -5.2620939      0.4657845      2.2754761
C      -5.2998279      1.6260519      3.0855120
N      -1.9780113      1.2262450     -2.0519207
H      -1.0291662      4.6673701     -4.1771958
C      -0.9680599      1.9432962     -2.5498536
C      -4.1582520      0.1831257      1.5028252
C      -4.2283678      2.4882218      3.0864181
H      -1.8412732     -0.9034126     -3.6284796
H      -4.1483614     -0.7167114      0.8863495
H      -4.2454482      3.3951419      3.6950836
C      -1.8751534     -0.1363080     -1.6024553
C      -1.8152804     -1.1655952     -2.5703568
C      -3.0240231      1.0457810      1.4973559
C      -3.0795622      2.2278983      2.2933447
H       0.0340100      1.5423600     -2.7118825
C      -1.8632970      0.7836149      0.6967376
C      -1.9867300      3.1394426      2.2511496
C      -1.8376452     -0.3735556     -0.2432811
C      -1.7139168     -2.4667307     -2.1548072
H      -2.0342270      4.0472893      2.8563605
H      -1.6514998     -3.2764913     -2.8838104
C      -0.8954907      2.8839918      1.4700455
C      -0.8120434      1.6960928      0.6859059
C      -1.7634169     -1.7353167      0.1974573
C      -1.6949771     -2.7829103     -0.7668278
O       0.2850533      1.5539807     -0.0677509
H      -0.0459110      3.5675858      1.4306537
C      -1.7192933     -2.0687198      1.5785420
C      -1.5920827     -4.1287323     -0.3208714
H      -1.7408680     -1.2652340      2.3168614
H      -1.5351539     -4.9242980     -1.0664544
C      -1.6268680     -3.3802953      1.9799194
C      -1.5607319     -4.4219962      1.0215441
H      -1.5919998     -3.6216306      3.0435338
H      -1.4815677     -5.4581763      1.3541516
H       2.9382527      2.2544219     -0.1344101
C       4.1507016     -0.3570444      1.2637125
C       4.1008230     -1.7473398      0.7817676
C       3.9437529     -0.3076446     -1.0234316
C       3.9394099      1.8952179      0.1494237
C       3.9357060     -1.7299109     -0.5714310
N       3.9802532      0.4553926      0.1309514
O       3.9514916      0.1441331     -2.1502733
O       4.3434259      0.0785531      2.3809525
H       4.2390261     -2.5973849      1.4447736
H       4.6814864      2.3103140     -0.5466447
H       4.0088593     -2.5488291     -1.2839678
H       4.1694169      2.2196173      1.1717379
          85

O       1.1054275     -0.0571904     -2.4851085
C       1.4024482     -1.1938573     -2.1589883
O       1.6918361     -2.1399383     -3.0762972
C       1.6971630     -1.7142064     -4.4330593
C       2.0593553     -2.9039522     -5.2915086
C       1.5528439     -1.6977647     -0.8164510
N       1.2798184     -0.9093191      0.2391171
C       1.4193138     -1.4233872      1.4318063
C       1.2323023     -0.6776415      2.6746434
C       1.3877119      0.7159060      2.7500645
C       1.1720788      1.3866698      3.9504425
C       0.8196393      0.6817316      5.1028166
C       0.6937699     -0.7085528      5.0480055
C       0.9042779     -1.3801457      3.8470545
H       0.7036227     -1.3154257     -4.6924206
H       2.4205767     -0.8924616     -4.5421895
H       2.0703238     -2.6156202     -6.3511323
H       1.3290975     -3.7143259     -5.1573438
H       3.0544165     -3.2844889     -5.0224554
H       0.6498197      0.5982164     -0.0682283
H       1.6134234     -2.7810258     -0.6965603
H       1.5418898     -2.5118829      1.5329097
H       1.6822441      1.2635403      1.8540789
H       1.2877508      2.4715952      3.9894850
H       0.6536011      1.2113733      6.0425785
H       0.4286512     -1.2699489      5.9459740
H       0.8001837     -2.4672137      3.8021923
H      -3.2702596      4.2108753     -2.3982433
C      -2.7140221      3.2808726     -2.3362624
H      -4.0193841      1.6749902     -1.4968305
H       0.4227507      3.9094387     -3.4529097
C      -3.0826554      2.0455855     -1.9029381
H      -0.5351649      5.0839862     -2.4999462
C      -0.5843625      4.2864332     -3.2497954
N      -1.3934787      3.1886815     -2.7350438
H      -6.1175386     -0.2123558      2.2639491
H      -6.1778244      1.8352045      3.6990298
C      -5.2626506      0.4658974      2.2760810
C      -5.2997166      1.6258894      3.0865521
N      -1.9794799      1.2266056     -2.0523699
H      -1.0293208      4.6688988     -4.1753219
C      -0.9691751      1.9435802     -2.5497400
C      -4.1592292      0.1832582      1.5028148
C      -4.2280502      2.4878152      3.0873099
H      -1.8441096     -0.9029963     -3.6292018
H      -4.1498289     -0.7163688      0.8859984
H      -4.2446545      3.3945032      3.6963301
C      -1.8768934     -0.1359955     -1.6031260
C      -1.8168376     -1.1651807     -2.5711037
C      -3.0248123      1.0456562      1.4972112
C      -3.0796400      2.2274909      2.2936428
H       0.0328368      1.5432386     -2.7122517
C      -1.8643663      0.7834983      0.6962258
C      -1.9864496      3.1386273      2.2512972
C      -1.8387518     -0.3733499     -0.2440015
C      -1.7140059     -2.4662960     -2.1557604
H      -2.0334340      4.0463518      2.8567306
H      -1.6518655     -3.2760320     -2.8848219
C      -0.8954527      2.8830306      1.4698464
C      -0.8125213      1.6952374      0.6854533
C      -1.7632713     -1.7349867      0.1965909
C      -1.6937567     -2.7824559     -0.7677860
O       0.2842098      1.5527553     -0.0686195
H      -0.0456787      3.5663816      1.4304174
C      -1.7202930     -2.0685044      1.5777573
C      -1.5901711     -4.1283415     -0.3218261
H      -1.7435263     -1.2651544      2.3161543
H      -1.5325182     -4.9238333     -1.0674213
C      -1.6274281     -3.3800217      1.9789937
C      -1.5597993     -4.4216764      1.0205278
H      -1.5938007     -3.6215740      3.0425945
H      -1.4804323     -5.4578225      1.3531444
H       2.9565815      2.2664630     -0.1318771
C       4.1499001     -0.3616260      1.2641282
C       4.0855572     -1.7463083      0.7819414
C       3.9340448     -0.3028066     -1.0234157
C       3.9537844      1.8965026      0.1533548
C       3.9021181     -1.7260260     -0.5748543
N       3.9804516      0.4564297      0.1310417
O       3.9438064      0.1501934     -2.1503084
O       4.3502497      0.0768472      2.3803174
H       4.2236033     -2.5989692      1.4416775
H       4.7015008      2.3075293     -0.5394286
H       3.9975929     -2.5393385     -1.2887615
H       4.1842785      2.2153288      1.1773764
          85

O       1.1030899     -0.0645287     -2.4761642
C       1.4150741     -1.1979771     -2.1563432
O       1.6992526     -2.1421284     -3.0753430
C       1.6942349     -1.7166899     -4.4327854
C       2.0577266     -2.9053172     -5.2921810
C       1.5897075     -1.6945813     -0.8124966
N       1.2900150     -0.9071874      0.2377394
C       1.4253278     -1.4215337      1.4305816
C       1.2299904     -0.6764893      2.6731745
C       1.3869233      0.7165680      2.7490361
C       1.1731932      1.3866946      3.9502043
C       0.8210973      0.6809118      5.1020701
C       0.6921552     -0.7090629      5.0462740
C       0.9003271     -1.3797778      3.8444169
H       0.6972453     -1.3228715     -4.6859720
H       2.4132349     -0.8916016     -4.5455685
H       2.0676008     -2.6163818     -6.3516344
H       1.3291863     -3.7172101     -5.1580168
H       3.0537289     -3.2837882     -5.0237291
H       0.6505444      0.5979659     -0.0701791
H       1.6398075     -2.7825433     -0.6887537
H       1.5480739     -2.5096904      1.5326915
H       1.6830186      1.2638665      1.8533462
H       1.2910636      2.4713135      3.9904939
H       0.6577466      1.2098374      6.0427121
H       0.4273030     -1.2706988      5.9441451
H       0.7955848     -2.4667304      3.7986256
H      -3.2706027      4.2118199     -2.3975034
C      -2.7146310      3.2816343     -2.3358480
H      -4.0205694      1.6757288     -1.4973622
H       0.4223498      3.9100718     -3.4519859
C      -3.0836710      2.0462561     -1.9031409
H      -0.5352168      5.0842218     -2.4981584
C      -0.5846441      4.2871986     -3.2485485
N      -1.3940388      3.1892978     -2.7344307
H      -6.1182015     -0.2121648      2.2645931
H      -6.1776560      1.8350436      3.7002042
C      -5.2631799      0.4659200      2.2766450
C      -5.2997639      1.6257179      3.0874236
N      -1.9807140      1.2270151     -2.0527175
H      -1.0296300      4.6703414     -4.1737746
C      -0.9701261      1.9439776     -2.5495894
C      -4.1600768      0.1833499      1.5028984
C      -4.2279283      2.4874504      3.0881172
H      -1.8469681     -0.9026953     -3.6297152
H      -4.1510956     -0.7160223      0.8856754
H      -4.2442153      3.3939651      3.6974020
C      -1.8785366     -0.1356835     -1.6036569
C      -1.8185909     -1.1648339     -2.5716328
C      -3.0255195      1.0455755      1.4972082
C      -3.0797744      2.2271403      2.2940398
H       0.0318411      1.5440061     -2.7125408
C      -1.8653969      0.7834779      0.6957933
C      -1.9862813      3.1379427      2.2514775
C      -1.8399562     -0.3731206     -0.2445523
C      -1.7147833     -2.4659384     -2.1564270
H      -2.0327902      4.0455635      2.8571048
H      -1.6531101     -3.2756786     -2.8855255
C      -0.8955564      2.8822806      1.4695892
C      -0.8130039      1.6945423      0.6849696
C      -1.7636052     -1.7346454      0.1959411
C      -1.6931204     -2.7820323     -0.7684910
O       0.2833913      1.5518653     -0.0695079
H      -0.0456595      3.5654801      1.4300933
C      -1.7219356     -2.0683755      1.5771985
C      -1.5890165     -4.1280052     -0.3225142
H      -1.7467524     -1.2651946      2.3157069
H      -1.5308978     -4.9234199     -1.0681488
C      -1.6282896     -3.3798071      1.9782751
C      -1.5592384     -4.4214338      1.0197449
H      -1.5955865     -3.6215264      3.0418670
H      -1.4794702     -5.4575352      1.3523768
H       2.9736684      2.2767660     -0.1303444
C       4.1483246     -0.3650915      1.2636177
C       4.0705958     -1.7454447      0.7816957
C       3.9248617     -0.2986535     -1.0239876
C       3.9664574      1.8964291      0.1564199
C       3.8753805     -1.7213816     -0.5756591
N       3.9796745      0.4567722      0.1310147
O       3.9362007      0.1550512     -2.1513081
O       4.3560437      0.0749048      2.3783519
H       4.2170139     -2.6006074      1.4360546
H       4.7196431      2.3027338     -0.5333128
H       3.9818294     -2.5335726     -1.2931834
H       4.1973419      2.2105544      1.1818018
          85

O       1.1009486     -0.0691697     -2.4674427
C       1.4285191     -1.1989965     -2.1550962
O       1.7010557     -2.1428111     -3.0750127
C       1.6924882     -1.7178960     -4.4333994
C       2.0571504     -2.9064759     -5.2922555
C       1.6385639     -1.6922891     -0.8083831
N       1.2968736     -0.9047794      0.2362742
C       1.4258589     -1.4192140      1.4284153
C       1.2264778     -0.6754580      2.6724390
C       1.3859018      0.7169327      2.7484586
C       1.1741254      1.3867702      3.9502873
C       0.8221299      0.6805609      5.1018157
C       0.6918637     -0.7093233      5.0458445
C       0.8979474     -1.3795623      3.8432693
H       0.6945651     -1.3255036     -4.6845536
H       2.4106819     -0.8920724     -4.5461544
H       2.0688326     -2.6171836     -6.3515569
H       1.3284828     -3.7184433     -5.1595740
H       3.0527795     -3.2845729     -5.0220680
H       0.6513408      0.5978092     -0.0712980
H       1.6534008     -2.7802975     -0.6878400
H       1.5544183     -2.5066756      1.5317450
H       1.6831254      1.2636667      1.8528081
H       1.2938473      2.4711123      3.9913373
H       0.6604478      1.2091577      6.0429448
H       0.4280407     -1.2710569      5.9439005
H       0.7932189     -2.4664945      3.7971897
H      -3.2710350      4.2123603     -2.3970092
C      -2.7151118      3.2821294     -2.3355845
H      -4.0212269      1.6760495     -1.4977065
H       0.4220697      3.9103932     -3.4514113
C      -3.0842599      2.0466387     -1.9032750
H      -0.5351905      5.0844779     -2.4972073
C      -0.5848217      4.2877266     -3.2478633
N      -1.3944991      3.1898500     -2.7340483
H      -6.1185851     -0.2120941      2.2649569
H      -6.1776498      1.8349614      3.7008036
C      -5.2634961      0.4659037      2.2769874
C      -5.2998538      1.6256106      3.0878984
N      -1.9813676      1.2273042     -2.0529209
H      -1.0297639      4.6712151     -4.1729586
C      -0.9707568      1.9444894     -2.5494710
C      -4.1605393      0.1833715      1.5030193
C      -4.2279251      2.4872373      3.0885841
H      -1.8487737     -0.9026242     -3.6299714
H      -4.1518110     -0.7158568      0.8855757
H      -4.2440690      3.3936683      3.6979935
C      -1.8796039     -0.1354752     -1.6039302
C      -1.8198578     -1.1646611     -2.5718727
C      -3.0259235      1.0455285      1.4972934
C      -3.0798874      2.2269440      2.2943415
H       0.0313355      1.5456888     -2.7129283
C      -1.8660184      0.7835555      0.6955705
C      -1.9862473      3.1376146      2.2517408
C      -1.8409720     -0.3729385     -0.2448178
C      -1.7157281     -2.4658084     -2.1567426
H      -2.0325028      4.0451058      2.8575829
H      -1.6544265     -3.2755544     -2.8858615
C      -0.8957256      2.8820638      1.4694962
C      -0.8133636      1.6944125      0.6845796
C      -1.7644439     -1.7344445      0.1956089
C      -1.6932636     -2.7818506     -0.7688187
O       0.2828005      1.5516997     -0.0700595
H      -0.0457949      3.5652223      1.4299393
C      -1.7233889     -2.0683602      1.5769119
C      -1.5886715     -4.1279396     -0.3228205
H      -1.7493415     -1.2653123      2.3155012
H      -1.5303459     -4.9232953     -1.0684946
C      -1.6287628     -3.3797080      1.9778919
C      -1.5589594     -4.4214092      1.0193569
H      -1.5963868     -3.6215094      3.0414784
H      -1.4787439     -5.4574479      1.3520330
H       2.9851109      2.2837363     -0.1300218
C       4.1468238     -0.3706560      1.2644902
C       4.0634821     -1.7442890      0.7850728
C       3.9211744     -0.2943309     -1.0246520
C       3.9744140      1.8951713      0.1576177
C       3.8533348     -1.7173869     -0.5780662
N       3.9770982      0.4562378      0.1296647
O       3.9303062      0.1574621     -2.1535736
O       4.3600147      0.0743482      2.3776496
H       4.2097911     -2.6020385      1.4356773
H       4.7315581      2.2977859     -0.5300813
H       3.9859798     -2.5241673     -1.2962564
H       4.2058782      2.2053937      1.1840870
          85

O       1.0953615     -0.0737860     -2.4665646
C       1.4275334     -1.2017955     -2.1566686
O       1.6966281     -2.1454476     -3.0755003
C       1.6900827     -1.7200415     -4.4346042
C       2.0565203     -2.9081369     -5.2931234
C       1.6523570     -1.6927416     -0.8065093
N       1.2898914     -0.9030989      0.2348651
C       1.4209597     -1.4178561      1.4259371
C       1.2230173     -0.6750532      2.6717316
C       1.3846298      0.7167896      2.7476932
C       1.1744877      1.3865047      3.9499654
C       0.8225958      0.6799745      5.1012550
C       0.6914470     -0.7098255      5.0453601
C       0.8958407     -1.3797962      3.8422667
H       0.6924910     -1.3276676     -4.6865900
H       2.4086253     -0.8942153     -4.5445571
H       2.0707236     -2.6178148     -6.3520901
H       1.3273460     -3.7200154     -5.1629321
H       3.0514888     -3.2864591     -5.0209555
H       0.6502068      0.5957664     -0.0709445
H       1.6376800     -2.7813407     -0.6875011
H       1.5486472     -2.5053361      1.5294274
H       1.6818700      1.2631316      1.8518304
H       1.2953175      2.4706715      3.9914956
H       0.6619308      1.2084138      6.0426577
H       0.4283674     -1.2715199      5.9436142
H       0.7907442     -2.4666723      3.7959010
H      -3.2715003      4.2127166     -2.3966618
C      -2.7156178      3.2824517     -2.3354066
H      -4.0218982      1.6762534     -1.4980318
H       0.4218295      3.9103247     -3.4509291
C      -3.0848660      2.0468736     -1.9034223
H      -0.5349638      5.0844337     -2.4962856
C      -0.5849126      4.2879709     -3.2472218
N      -1.3949819      3.1902000     -2.7337322
H      -6.1189587     -0.2121543      2.2651984
H      -6.1776916      1.8347629      3.7012500
C      -5.2638082      0.4657654      2.2772247
C      -5.2999710      1.6253893      3.0882480
N      -1.9820473      1.2274300     -2.0531000
H      -1.0297679      4.6718992     -4.1721706
C      -0.9714233      1.9448248     -2.5493509
C      -4.1609816      0.1832662      1.5030898
C      -4.2279634      2.4869316      3.0889326
H      -1.8503697     -0.9026892     -3.6302433
H      -4.1524763     -0.7158386      0.8854760
H      -4.2439989      3.3932971      3.6984422
C      -1.8808571     -0.1354515     -1.6041884
C      -1.8213431     -1.1647056     -2.5721350
C      -3.0263250      1.0453597      1.4973453
C      -3.0800335      2.2266569      2.2945582
H       0.0306962      1.5469468     -2.7133136
C      -1.8666805      0.7834513      0.6953442
C      -1.9862864      3.1372241      2.2518789
C      -1.8423409     -0.3729747     -0.2450973
C      -1.7170828     -2.4658905     -2.1571059
H      -2.0323335      4.0446092      2.8579010
H      -1.6558600     -3.2756081     -2.8862619
C      -0.8959753      2.8817573      1.4693068
C      -0.8138295      1.6942417      0.6840156
C      -1.7660803     -1.7345597      0.1952439
C      -1.6943925     -2.7819432     -0.7691518
O       0.2820171      1.5509823     -0.0705729
H      -0.0460063      3.5648715      1.4296727
C      -1.7251010     -2.0685688      1.5765513
C      -1.5892600     -4.1280828     -0.3231656
H      -1.7517602     -1.2655909      2.3151748
H      -1.5308008     -4.9233992     -1.0688679
C      -1.6294889     -3.3798369      1.9774991
C      -1.5592576     -4.4215793      1.0189693
H      -1.5970147     -3.6216603      3.0410783
H      -1.4785486     -5.4575666      1.3516562
H       2.9903314      2.2855984     -0.1305407
C       4.1387453     -0.3791223      1.2622257
C       4.0380976     -1.7471112      0.7846545
C       3.9081818     -0.2951529     -1.0274743
C       3.9776172      1.8910171      0.1561418
C       3.8100343     -1.7177262     -0.5821734
N       3.9721732      0.4524171      0.1258743
O       3.9230004      0.1548727     -2.1574984
O       4.3598898      0.0692123      2.3736344
H       4.1850352     -2.6075528      1.4313368
H       4.7365828      2.2913198     -0.5309719
H       3.9623338     -2.5212122     -1.3008644
H       4.2109316      2.1979333      1.1832068
          85

O       1.0897058     -0.0776397     -2.4679910
C       1.4230943     -1.2044149     -2.1589115
O       1.6909151     -2.1481090     -3.0761897
C       1.6879197     -1.7219927     -4.4359348
C       2.0559053     -2.9097145     -5.2940028
C       1.6568020     -1.6939552     -0.8053440
N       1.2802976     -0.9016337      0.2338251
C       1.4151444     -1.4168823      1.4236767
C       1.2199753     -0.6748686      2.6712362
C       1.3834554      0.7165153      2.7470453
C       1.1746190      1.3862351      3.9496139
C       0.8227605      0.6795084      5.1007368
C       0.6910811     -0.7102360      5.0450553
C       0.8941386     -1.3800849      3.8415866
H       0.6911006     -1.3290191     -4.6895178
H       2.4073562     -0.8965879     -4.5424898
H       2.0731247     -2.6182783     -6.3526001
H       1.3258087     -3.7211738     -5.1666051
H       3.0500128     -3.2887863     -5.0197737
H       0.6488553      0.5934932     -0.0700578
H       1.6155532     -2.7828146     -0.6878862
H       1.5403859     -2.5045708      1.5270595
H       1.6804677      1.2625141      1.8509238
H       1.2962167      2.4702762      3.9914334
H       0.6627230      1.2078990      6.0422830
H       0.4286303     -1.2718326      5.9435169
H       0.7887243     -2.4669171      3.7950706
H      -3.2718704      4.2129737     -2.3964433
C      -2.7160228      3.2826832     -2.3352898
H      -4.0224765      1.6764050     -1.4983575
H       0.4217009      3.9101335     -3.4504912
C      -3.0853725      2.0470403     -1.9035682
H      -0.5345715      5.0842644     -2.4953619
C      -0.5848806      4.2881024     -3.2465885
N      -1.3953534      3.1904483     -2.7334368
H      -6.1192344     -0.2122853      2.2653357
H      -6.1777127      1.8345004      3.7015831
C      -5.2640307      0.4655678      2.2773866
C      -5.3000455      1.6251117      3.0885128
N      -1.9826154      1.2274929     -2.0532248
H      -1.0296531      4.6725087     -4.1713728
C      -0.9719741      1.9450763     -2.5491830
C      -4.1613056      0.1830999      1.5031261
C      -4.2279716      2.4865809      3.0892125
H      -1.8516342     -0.9027938     -3.6304980
H      -4.1529968     -0.7158935      0.8853632
H      -4.2439199      3.3928912      3.6988065
C      -1.8819674     -0.1354897     -1.6044120
C      -1.8226336     -1.1648098     -2.5723800
C      -3.0266157      1.0451370      1.4973813
C      -3.0801299      2.2263263      2.2947400
H       0.0301556      1.5480275     -2.7135862
C      -1.8672019      0.7832955      0.6951420
C      -1.9863131      3.1368227      2.2520163
C      -1.8435719     -0.3730791     -0.2453505
C      -1.7183245     -2.4660339     -2.1574481
H      -2.0322045      4.0441048      2.8582092
H      -1.6570881     -3.2757149     -2.8866434
C      -0.8961830      2.8814497      1.4691683
C      -0.8142088      1.6940897      0.6834933
C      -1.7676831     -1.7347608      0.1949035
C      -1.6956382     -2.7821186     -0.7694536
O       0.2813562      1.5502572     -0.0709787
H      -0.0461839      3.5645314      1.4294881
C      -1.7266290     -2.0688231      1.5762049
C      -1.5900532     -4.1282903     -0.3234755
H      -1.7537734     -1.2658833      2.3148397
H      -1.5315104     -4.9235817     -1.0691951
C      -1.6301678     -3.3800201      1.9771473
C      -1.5596958     -4.4218013      1.0186298
H      -1.5974850     -3.6218433      3.0407215
H      -1.4785484     -5.4577431      1.3513231
H       2.9929900      2.2856650     -0.1312893
C       4.1304389     -0.3874539      1.2596331
C       4.0124636     -1.7503174      0.7835971
C       3.8949448     -0.2971060     -1.0304149
C       3.9789604      1.8865793      0.1540428
C       3.7663296     -1.7188592     -0.5864012
N       3.9673072      0.4481457      0.1218639
O       3.9164982      0.1512237     -2.1613202
O       4.3586345      0.0638245      2.3694809
H       4.1600417     -2.6132879      1.4266021
H       4.7388840      2.2853785     -0.5329382
H       3.9369107     -2.5195236     -1.3048696
H       4.2142078      2.1907923      1.1814892
          85

O       1.0834994     -0.0806141     -2.4712482
C       1.4162058     -1.2066671     -2.1616839
O       1.6836272     -2.1509609     -3.0768516
C       1.6859901     -1.7240253     -4.4370161
C       2.0552131     -2.9111904     -5.2950158
C       1.6558989     -1.6949621     -0.8045971
N       1.2667764     -0.9005536      0.2327666
C       1.4077468     -1.4159689      1.4216248
C       1.2172345     -0.6748544      2.6711228
C       1.3825559      0.7161102      2.7466296
C       1.1745509      1.3860008      3.9492848
C       0.8225364      0.6792690      5.1003131
C       0.6906984     -0.7104702      5.0450836
C       0.8929259     -1.3804213      3.8414696
H       0.6905958     -1.3293663     -4.6931647
H       2.4071018     -0.8996307     -4.5393986
H       2.0761482     -2.6180511     -6.3530687
H       1.3236079     -3.7218344     -5.1712903
H       3.0480039     -3.2918447     -5.0183019
H       0.6468979      0.5909103     -0.0690414
H       1.5919685     -2.7833617     -0.6888130
H       1.5305686     -2.5038873      1.5246340
H       1.6790368      1.2617461      1.8501233
H       1.2964864      2.4699764      3.9911439
H       0.6625706      1.2078041      6.0417974
H       0.4285373     -1.2718241      5.9437507
H       0.7870010     -2.4671960      3.7948896
H      -3.2721174      4.2132300     -2.3964477
C      -2.7163273      3.2829086     -2.3352700
H      -4.0230253      1.6766840     -1.4986667
H       0.4217144      3.9098421     -3.4500183
C      -3.0858129      2.0472517     -1.9036865
H      -0.5339086      5.0839222     -2.4941867
C      -0.5846718      4.2881704     -3.2458169
N      -1.3956037      3.1906285     -2.7331374
H      -6.1194515     -0.2125043      2.2654244
H      -6.1776899      1.8341681      3.7018903
C      -5.2641938      0.4652823      2.2775210
C      -5.3000763      1.6247393      3.0887587
N      -1.9831299      1.2275302     -2.0532276
H      -1.0293688      4.6732378     -4.1703584
C      -0.9724136      1.9452819     -2.5488153
C      -4.1615545      0.1828377      1.5031355
C      -4.2279019      2.4860947      3.0894587
H      -1.8525436     -0.9030347     -3.6308420
H      -4.1534786     -0.7160445      0.8852228
H      -4.2437363      3.3923630      3.6991213
C      -1.8830630     -0.1356555     -1.6046778
C      -1.8238289     -1.1650545     -2.5727086
C      -3.0267576      1.0447619      1.4973882
C      -3.0801386      2.2258403      2.2949041
H       0.0297359      1.5489423     -2.7134385
C      -1.8675299      0.7830253      0.6949120
C      -1.9862937      3.1363208      2.2521605
C      -1.8447662     -0.3733157     -0.2456563
C      -1.7194854     -2.4663082     -2.1578315
H      -2.0321111      4.0435155      2.8584967
H      -1.6580068     -3.2759688     -2.8870309
C      -0.8962841      2.8810637      1.4691495
C      -0.8144386      1.6939656      0.6829540
C      -1.7694440     -1.7350947      0.1945455
C      -1.6970485     -2.7823981     -0.7697708
O       0.2808624      1.5497453     -0.0713014
H      -0.0462668      3.5641307      1.4294602
C      -1.7280632     -2.0691340      1.5758326
C      -1.5910338     -4.1285668     -0.3237942
H      -1.7553351     -1.2661764      2.3144378
H      -1.5324075     -4.9238531     -1.0695146
C      -1.6308264     -3.3802589      1.9768018
C      -1.5602978     -4.4220654      1.0182931
H      -1.5977415     -3.6220660      3.0403710
H      -1.4787518     -5.4579702      1.3509875
H       2.9942814      2.2848241     -0.1323245
C       4.1206059     -0.3955075      1.2565169
C       3.9851061     -1.7538148      0.7825633
C       3.8818591     -0.2998310     -1.0337542
C       3.9792130      1.8818136      0.1513627
C       3.7272218     -1.7204478     -0.5907149
N       3.9619227      0.4435758      0.1175023
O       3.9097072      0.1466020     -2.1655382
O       4.3569331      0.0573064      2.3648334
H       4.1317921     -2.6188522      1.4228693
H       4.7397008      2.2792395     -0.5358158
H       3.9107273     -2.5191996     -1.3089034
H       4.2166087      2.1836361      1.1790426
          85

O       1.0797220     -0.0828300     -2.4778061
C       1.4040105     -1.2097848     -2.1648262
O       1.6792790     -2.1534462     -3.0776368
C       1.6844209     -1.7253148     -4.4377241
C       2.0545446     -2.9117978     -5.2959282
C       1.6304774     -1.6988837     -0.8054229
N       1.2547252     -0.9002313      0.2333154
C       1.4035808     -1.4164705      1.4207946
C       1.2169097     -0.6753157      2.6709355
C       1.3820551      0.7155946      2.7461057
C       1.1740024      1.3857023      3.9486839
C       0.8223818      0.6788706      5.0997540
C       0.6900634     -0.7108092      5.0445585
C       0.8921630     -1.3808902      3.8409634
H       0.6893200     -1.3305406     -4.6949039
H       2.4055417     -0.9007782     -4.5380324
H       2.0770939     -2.6178679     -6.3537635
H       1.3224990     -3.7222789     -5.1739399
H       3.0468548     -3.2930207     -5.0182888
H       0.6461379      0.5889336     -0.0669342
H       1.5571310     -2.7870400     -0.6891846
H       1.5196727     -2.5050951      1.5230509
H       1.6779233      1.2611404      1.8493599
H       1.2954405      2.4696928      3.9904659
H       0.6623468      1.2072918      6.0412829
H       0.4278193     -1.2718876      5.9433579
H       0.7863168     -2.4677029      3.7943147
H      -3.2720220      4.2135224     -2.3967032
C      -2.7163793      3.2829756     -2.3353812
H      -4.0234075      1.6772314     -1.4986852
H       0.4217274      3.9096526     -3.4500420
C      -3.0859831      2.0474118     -1.9037012
H      -0.5339262      5.0835997     -2.4936553
C      -0.5845485      4.2880788     -3.2454231
N      -1.3957351      3.1905140     -2.7331376
H      -6.1195741     -0.2127339      2.2656387
H      -6.1777913      1.8339188      3.7019251
C      -5.2643237      0.4650856      2.2775581
C      -5.3001471      1.6245207      3.0888272
N      -1.9834426      1.2274360     -2.0530827
H      -1.0292988      4.6734460     -4.1697860
C      -0.9726673      1.9452080     -2.5485253
C      -4.1617388      0.1827092      1.5031309
C      -4.2279485      2.4858504      3.0895758
H      -1.8528473     -0.9029847     -3.6312216
H      -4.1539592     -0.7161617      0.8851080
H      -4.2435532      3.3920793      3.6993129
C      -1.8837136     -0.1360390     -1.6048590
C      -1.8243292     -1.1653899     -2.5731270
C      -3.0268408      1.0445713      1.4973517
C      -3.0801317      2.2255221      2.2950176
H       0.0294238      1.5489135     -2.7134192
C      -1.8677448      0.7828617      0.6947459
C      -1.9863230      3.1360211      2.2519711
C      -1.8450894     -0.3735998     -0.2457835
C      -1.7199395     -2.4666489     -2.1581478
H      -2.0322974      4.0433140      2.8581301
H      -1.6582012     -3.2764451     -2.8871681
C      -0.8962795      2.8805403      1.4689991
C      -0.8143835      1.6935533      0.6827315
C      -1.7702893     -1.7354183      0.1944214
C      -1.6979457     -2.7825359     -0.7699716
O       0.2807732      1.5490531     -0.0714945
H      -0.0462488      3.5635380      1.4291166
C      -1.7286541     -2.0693309      1.5757110
C      -1.5918290     -4.1286359     -0.3240374
H      -1.7559758     -1.2663029      2.3142154
H      -1.5332424     -4.9238739     -1.0697897
C      -1.6312497     -3.3804108      1.9766293
C      -1.5608084     -4.4221253      1.0180416
H      -1.5980656     -3.6223311      3.0401387
H      -1.4792847     -5.4579841      1.3508226
H       2.9907448      2.2807520     -0.1328631
C       4.1149809     -0.4007326      1.2536879
C       3.9638843     -1.7571135      0.7789349
C       3.8698561     -0.3036144     -1.0358290
C       3.9767036      1.8788499      0.1491870
C       3.6886528     -1.7232186     -0.5941570
N       3.9605044      0.4402130      0.1146098
O       3.9075439      0.1423299     -2.1674003
O       4.3537336      0.0531312      2.3615014
H       4.1124325     -2.6238249      1.4167257
H       4.7355728      2.2777308     -0.5387481
H       3.8808061     -2.5213429     -1.3117025
H       4.2150938      2.1802480      1.1767256
          85

O       1.0761140     -0.0845512     -2.4843982
C       1.3912638     -1.2126425     -2.1677771
O       1.6750080     -2.1554275     -3.0782852
C       1.6833850     -1.7266833     -4.4386185
C       2.0546500     -2.9125559     -5.2968277
C       1.6012213     -1.7030571     -0.8064257
N       1.2421892     -0.9003244      0.2338544
C       1.3997510     -1.4172327      1.4200731
C       1.2173166     -0.6757812      2.6706699
C       1.3819201      0.7152179      2.7455027
C       1.1737758      1.3851571      3.9480471
C       0.8220654      0.6780720      5.0989877
C       0.6897058     -0.7115012      5.0438184
C       0.8920896     -1.3814392      3.8402058
H       0.6885566     -1.3321958     -4.6971012
H       2.4042791     -0.9018226     -4.5369637
H       2.0754930     -2.6183155     -6.3545638
H       1.3235545     -3.7238186     -5.1741064
H       3.0476628     -3.2927730     -5.0203527
H       0.6440940      0.5860872     -0.0650892
H       1.5219306     -2.7905229     -0.6897451
H       1.5084642     -2.5065982      1.5217036
H       1.6769660      1.2609414      1.8486188
H       1.2948554      2.4692173      3.9899535
H       0.6619214      1.2065462      6.0404749
H       0.4270351     -1.2727262      5.9424065
H       0.7854689     -2.4681194      3.7932354
H      -3.2722832      4.2130925     -2.3964991
C      -2.7165802      3.2827231     -2.3353292
H      -4.0233935      1.6766491     -1.4986220
H       0.4215482      3.9093910     -3.4500595
C      -3.0861739      2.0471227     -1.9037061
H      -0.5339754      5.0834796     -2.4941254
C      -0.5848017      4.2877970     -3.2458240
N      -1.3958947      3.1903195     -2.7332314
H      -6.1197034     -0.2125711      2.2654191
H      -6.1778133      1.8340608      3.7019100
C      -5.2644238      0.4651898      2.2774987
C      -5.3002243      1.6246312      3.0887444
N      -1.9836105      1.2272844     -2.0532958
H      -1.0294494      4.6729957     -4.1703345
C      -0.9728989      1.9449722     -2.5489338
C      -4.1618557      0.1827346      1.5030755
C      -4.2280397      2.4859921      3.0894015
H      -1.8532211     -0.9031671     -3.6310164
H      -4.1538867     -0.7161144      0.8851279
H      -4.2438557      3.3922621      3.6990668
C      -1.8839510     -0.1358850     -1.6047536
C      -1.8247466     -1.1653123     -2.5728924
C      -3.0270741      1.0446208      1.4972894
C      -3.0803496      2.2257200      2.2947692
H       0.0290406      1.5486829     -2.7140027
C      -1.8680272      0.7827095      0.6947826
C      -1.9864578      3.1361023      2.2517487
C      -1.8457769     -0.3736107     -0.2458042
C      -1.7204407     -2.4665766     -2.1581371
H      -2.0321841      4.0434046      2.8579394
H      -1.6587076     -3.2761926     -2.8873736
C      -0.8965235      2.8806281      1.4687078
C      -0.8147190      1.6935216      0.6824194
C      -1.7708781     -1.7355352      0.1943187
C      -1.6987505     -2.7827458     -0.7699644
O       0.2802509      1.5477633     -0.0714848
H      -0.0464706      3.5636559      1.4289393
C      -1.7289654     -2.0694437      1.5755664
C      -1.5924607     -4.1288236     -0.3240395
H      -1.7561546     -1.2664057      2.3140972
H      -1.5338768     -4.9241331     -1.0697377
C      -1.6315143     -3.3805634      1.9765979
C      -1.5611808     -4.4223126      1.0180848
H      -1.5980685     -3.6223573      3.0401554
H      -1.4794272     -5.4582092      1.3507352
H       2.9861447      2.2761943     -0.1330221
C       4.1091115     -0.4054211      1.2507997
C       3.9426241     -1.7605464      0.7754826
C       3.8582214     -0.3079771     -1.0378710
C       3.9733295      1.8758155      0.1471933
C       3.6533537     -1.7264305     -0.5970548
N       3.9587696      0.4366155      0.1118483
O       3.9062184      0.1384233     -2.1687359
O       4.3505964      0.0489085      2.3581427
H       4.0933792     -2.6283998      1.4112641
H       4.7305080      2.2766962     -0.5415227
H       3.8470564     -2.5250790     -1.3139328
H       4.2127381      2.1765445      1.1746777
          85

O       1.0701955     -0.0860939     -2.4897189
C       1.3799552     -1.2145381     -2.1709119
O       1.6674372     -2.1577677     -3.0790144
C       1.6822961     -1.7286221     -4.4395829
C       2.0553308     -2.9140438     -5.2974897
C       1.5858269     -1.7046301     -0.8071341
N       1.2257858     -0.9001760      0.2329938
C       1.3926525     -1.4171614      1.4183009
C       1.2161323     -0.6761154      2.6703010
C       1.3817862      0.7146779      2.7450380
C       1.1739051      1.3845423      3.9476814
C       0.8218211      0.6773155      5.0984205
C       0.6897451     -0.7122647      5.0434683
C       0.8921069     -1.3821099      3.8397950
H       0.6889062     -1.3329293     -4.7015573
H       2.4044633     -0.9045079     -4.5340530
H       2.0757356     -2.6193524     -6.3551100
H       1.3250346     -3.7260689     -5.1751149
H       3.0487857     -3.2932851     -5.0213114
H       0.6409219      0.5827842     -0.0636629
H       1.4947391     -2.7917993     -0.6912042
H       1.4961564     -2.5069377      1.5195121
H       1.6758174      1.2604573      1.8478522
H       1.2948003      2.4686071      3.9897095
H       0.6610962      1.2058277      6.0397892
H       0.4269343     -1.2734257      5.9420406
H       0.7849617     -2.4687258      3.7925621
H      -3.2727964      4.2129272     -2.3962894
C      -2.7170090      3.2826015     -2.3352920
H      -4.0235057      1.6763914     -1.4983594
H       0.4210756      3.9090298     -3.4504288
C      -3.0864175      2.0469527     -1.9036667
H      -0.5345618      5.0835666     -2.4951754
C      -0.5853019      4.2875308     -3.2465019
N      -1.3964195      3.1902762     -2.7334953
H      -6.1200512     -0.2123246      2.2655432
H      -6.1780538      1.8344167      3.7018512
C      -5.2647548      0.4654183      2.2775381
C      -5.3004953      1.6249349      3.0886615
N      -1.9838679      1.2271661     -2.0534544
H      -1.0298233      4.6722990     -4.1712532
C      -0.9733569      1.9450005     -2.5493012
C      -4.1622215      0.1828937      1.5031388
C      -4.2283348      2.4863440      3.0891733
H      -1.8536781     -0.9032718     -3.6308936
H      -4.1542749     -0.7159779      0.8852423
H      -4.2441802      3.3926774      3.6987485
C      -1.8846280     -0.1359404     -1.6046581
C      -1.8256278     -1.1654594     -2.5727633
C      -3.0274758      1.0447971      1.4972825
C      -3.0806837      2.2260303      2.2945672
H       0.0285453      1.5491920     -2.7148061
C      -1.8685979      0.7827329      0.6948026
C      -1.9867574      3.1363910      2.2514410
C      -1.8469059     -0.3736539     -0.2457339
C      -1.7216240     -2.4667479     -2.1580896
H      -2.0324373      4.0436963      2.8576403
H      -1.6597601     -3.2763093     -2.8873741
C      -0.8969349      2.8808654      1.4682944
C      -0.8152791      1.6937233      0.6819141
C      -1.7724928     -1.7357332      0.1943125
C      -1.7002173     -2.7829556     -0.7698679
O       0.2793570      1.5469012     -0.0716013
H      -0.0468332      3.5638318      1.4283814
C      -1.7299052     -2.0696241      1.5755051
C      -1.5933424     -4.1290150     -0.3239771
H      -1.7568378     -1.2665320      2.3139944
H      -1.5346692     -4.9242996     -1.0696975
C      -1.6318220     -3.3806928      1.9766011
C      -1.5615513     -4.4224992      1.0181524
H      -1.5977795     -3.6223847      3.0401637
H      -1.4793769     -5.4583540      1.3508241
H       2.9840067      2.2732686     -0.1338710
C       4.0985822     -0.4122668      1.2473719
C       3.9152994     -1.7644442      0.7739417
C       3.8454986     -0.3125472     -1.0409547
C       3.9708889      1.8706842      0.1444355
C       3.6201809     -1.7294244     -0.6006851
N       3.9527442      0.4314300      0.1081067
O       3.9011844      0.1328964     -2.1718277
O       4.3479076      0.0417792      2.3534195
H       4.0660279     -2.6336583      1.4078412
H       4.7277542      2.2707264     -0.5450767
H       3.8233131     -2.5278943     -1.3159028
H       4.2125027      2.1699377      1.1718254
          85

O       1.0640277     -0.0886970     -2.4933062
C       1.3719268     -1.2166408     -2.1740971
O       1.6602310     -2.1600490     -3.0799837
C       1.6807559     -1.7304424     -4.4409185
C       2.0558520     -2.9155868     -5.2979857
C       1.5824174     -1.7063250     -0.8069322
N       1.2126058     -0.8991801      0.2321635
C       1.3863468     -1.4167457      1.4160374
C       1.2140875     -0.6763655      2.6697357
C       1.3811064      0.7141070      2.7443821
C       1.1740890      1.3839418      3.9472551
C       0.8219442      0.6765498      5.0978450
C       0.6898430     -0.7130116      5.0430734
C       0.8914369     -1.3827347      3.8391371
H       0.6886046     -1.3338809     -4.7059493
H       2.4040239     -0.9069225     -4.5314026
H       2.0776318     -2.6204958     -6.3554562
H       1.3255869     -3.7278325     -5.1770045
H       3.0490447     -3.2945321     -5.0205225
H       0.6385221      0.5797291     -0.0624065
H       1.4694321     -2.7922124     -0.6931592
H       1.4853904     -2.5069077      1.5170804
H       1.6744517      1.2597666      1.8469162
H       1.2952530      2.4679486      3.9894654
H       0.6612837      1.2050413      6.0392443
H       0.4274453     -1.2741505      5.9417538
H       0.7840314     -2.4693164      3.7917700
H      -3.2733623      4.2129023     -2.3961690
C      -2.7175132      3.2826098     -2.3352828
H      -4.0237752      1.6763430     -1.4981157
H       0.4205739      3.9087959     -3.4507098
C      -3.0867811      2.0469393     -1.9036079
H      -0.5351173      5.0836835     -2.4959580
C      -0.5858139      4.2873958     -3.2470156
N      -1.3970047      3.1903336     -2.7336983
H      -6.1204673     -0.2120850      2.2657471
H      -6.1783604      1.8347819      3.7018733
C      -5.2651505      0.4656357      2.2776673
C      -5.3008272      1.6252204      3.0886765
N      -1.9842728      1.2271317     -2.0535372
H      -1.0302345      4.6718489     -4.1719453
C      -0.9739391      1.9451322     -2.5495171
C      -4.1626669      0.1830475      1.5032553
C      -4.2286506      2.4866279      3.0890636
H      -1.8545093     -0.9034479     -3.6308835
H      -4.1548151     -0.7158343      0.8853860
H      -4.2444924      3.3930243      3.6985497
C      -1.8855438     -0.1359989     -1.6046461
C      -1.8267329     -1.1656276     -2.5727344
C      -3.0279182      1.0449306      1.4973019
C      -3.0810409      2.2262466      2.2944685
H       0.0279424      1.5500749     -2.7155827
C      -1.8692312      0.7827619      0.6947391
C      -1.9870795      3.1365791      2.2511746
C      -1.8481481     -0.3736904     -0.2457361
C      -1.7229473     -2.4669427     -2.1581096
H      -2.0326898      4.0439124      2.8573467
H      -1.6610433     -3.2764970     -2.8873993
C      -0.8973795      2.8809961      1.4678973
C      -0.8158073      1.6938446      0.6813574
C      -1.7741888     -1.7358904      0.1942700
C      -1.7016959     -2.7831201     -0.7698241
O       0.2785060      1.5461487     -0.0718491
H      -0.0472560      3.5639353      1.4278351
C      -1.7311904     -2.0697880      1.5754398
C      -1.5942375     -4.1291691     -0.3239436
H      -1.7582259     -1.2666721      2.3138990
H      -1.5354726     -4.9244340     -1.0696811
C      -1.6322312     -3.3807762      1.9765641
C      -1.5618845     -4.4226407      1.0181587
H      -1.5976674     -3.6224100      3.0401268
H      -1.4791553     -5.4584410      1.3508474
H       2.9834321      2.2713288     -0.1347572
C       4.0890044     -0.4203619      1.2446289
C       3.8891423     -1.7676946      0.7732841
C       3.8322184     -0.3161925     -1.0437953
C       3.9695628      1.8655024      0.1418011
C       3.5797680     -1.7313288     -0.6049853
N       3.9465439      0.4262174      0.1042243
O       3.8958645      0.1276070     -2.1750560
O       4.3454227      0.0355597      2.3492105
H       4.0409121     -2.6390563      1.4039332
H       4.7266106      2.2643059     -0.5482428
H       3.8006440     -2.5277550     -1.3181970
H       4.2133919      2.1627205      1.1692669
          85

O       1.0582070     -0.0921525     -2.4949955
C       1.3677457     -1.2187772     -2.1769427
O       1.6543776     -2.1621106     -3.0809726
C       1.6790275     -1.7321096     -4.4424549
C       2.0561798     -2.9170275     -5.2985598
C       1.5913404     -1.7078280     -0.8055649
N       1.2021158     -0.8975298      0.2315839
C       1.3813297     -1.4158249      1.4136921
C       1.2119474     -0.6764510      2.6692702
C       1.3803416      0.7136213      2.7436680
C       1.1743139      1.3834250      3.9468052
C       0.8222439      0.6757773      5.0972134
C       0.6898506     -0.7137520      5.0426342
C       0.8905134     -1.3833288      3.8383827
H       0.6877255     -1.3351434     -4.7096049
H       2.4030404     -0.9089187     -4.5293276
H       2.0798041     -2.6215313     -6.3558575
H       1.3257692     -3.7293552     -5.1792215
H       3.0489533     -3.2957214     -5.0193739
H       0.6366799      0.5765805     -0.0610773
H       1.4478251     -2.7914780     -0.6952445
H       1.4776296     -2.5062005      1.5148638
H       1.6732687      1.2589791      1.8459146
H       1.2959067      2.4673440      3.9892794
H       0.6619504      1.2042005      6.0387257
H       0.4279618     -1.2748382      5.9414582
H       0.7829699     -2.4698846      3.7908525
H      -3.2739068      4.2129641     -2.3960450
C      -2.7180162      3.2826927     -2.3352628
H      -4.0241093      1.6763793     -1.4979372
H       0.4201062      3.9086445     -3.4508907
C      -3.0871846      2.0470008     -1.9035669
H      -0.5355954      5.0838126     -2.4965135
C      -0.5862789      4.2873494     -3.2473792
N      -1.3975774      3.1904589     -2.7338324
H      -6.1208748     -0.2118702      2.2659699
H      -6.1786395      1.8350989      3.7019535
C      -5.2655339      0.4658230      2.2778238
C      -5.3011362      1.6254596      3.0887432
N      -1.9847302      1.2271482     -2.0536098
H      -1.0306132      4.6715726     -4.1724426
C      -0.9745520      1.9453271     -2.5496562
C      -4.1631084      0.1831767      1.5033782
C      -4.2289260      2.4868452      3.0890206
H      -1.8555679     -0.9036024     -3.6309119
H      -4.1553868     -0.7157025      0.8855136
H      -4.2447426      3.3932899      3.6984392
C      -1.8865190     -0.1360146     -1.6046619
C      -1.8278581     -1.1657450     -2.5727405
C      -3.0283437      1.0450290      1.4973248
C      -3.0813664      2.2263986      2.2944166
H       0.0273394      1.5512385     -2.7163302
C      -1.8698469      0.7827995      0.6946553
C      -1.9873483      3.1366824      2.2509547
C      -1.8493445     -0.3736811     -0.2457698
C      -1.7241358     -2.4670867     -2.1581780
H      -2.0328701      4.0440378      2.8571106
H      -1.6623030     -3.2766491     -2.8874646
C      -0.8977670      2.8810554      1.4675350
C      -0.8162406      1.6939043      0.6807924
C      -1.7756685     -1.7359743      0.1941896
C      -1.7028662     -2.7832139     -0.7698281
O       0.2777239      1.5453227     -0.0721235
H      -0.0476299      3.5639809      1.4273485
C      -1.7324770     -2.0699004      1.5753575
C      -1.5949262     -4.1292927     -0.3239402
H      -1.7598501     -1.2667791      2.3137910
H      -1.5361179     -4.9245415     -1.0696903
C      -1.6326182     -3.3808015      1.9764914
C      -1.5621353     -4.4227486      1.0181223
H      -1.5977047     -3.6224094      3.0400509
H      -1.4789308     -5.4584915      1.3508411
H       2.9841393      2.2700082     -0.1354847
C       4.0807888     -0.4290009      1.2425784
C       3.8648033     -1.7698457      0.7737445
C       3.8193199     -0.3183338     -1.0462621
C       3.9693106      1.8606324      0.1396475
C       3.5352458     -1.7315931     -0.6097508
N       3.9410412      0.4214272      0.1004171
O       3.8909494      0.1231910     -2.1781851
O       4.3440191      0.0304052      2.3455216
H       4.0177223     -2.6440442      1.4001020
H       4.7268900      2.2583800     -0.5504708
H       3.7816791     -2.5242284     -1.3203927
H       4.2149274      2.1553513      1.1674228
          85

O       1.0546994     -0.0951344     -2.4886027
C       1.3785249     -1.2185064     -2.1770405
O       1.6525678     -2.1624263     -3.0814187
C       1.6780216     -1.7328750     -4.4437436
C       2.0567498     -2.9181033     -5.2985599
C       1.6424295     -1.7053392     -0.8015409
N       1.2025067     -0.8952159      0.2302937
C       1.3797183     -1.4134079      1.4114820
C       1.2092526     -0.6758933      2.6691301
C       1.3798272      0.7135242      2.7433284
C       1.1750595      1.3832496      3.9468542
C       0.8228663      0.6754074      5.0970164
C       0.6902449     -0.7141628      5.0426961
C       0.8897351     -1.3835532      3.8380633
H       0.6872110     -1.3355376     -4.7114934
H       2.4028975     -0.9101282     -4.5283018
H       2.0827456     -2.6226168     -6.3557811
H       1.3260575     -3.7303444     -5.1807851
H       3.0489802     -3.2963885     -5.0170367
H       0.6362648      0.5750437     -0.0611315
H       1.4574848     -2.7869563     -0.6969572
H       1.4822972     -2.5030934      1.5136159
H       1.6732098      1.2583227      1.8454059
H       1.2977257      2.4669912      3.9897141
H       0.6632141      1.2037664      6.0386919
H       0.4291736     -1.2752088      5.9417267
H       0.7823820     -2.4701154      3.7904459
H      -3.2744713      4.2131808     -2.3958288
C      -2.7185043      3.2829471     -2.3351899
H      -4.0243851      1.6764998     -1.4977963
H       0.4196479      3.9087204     -3.4510010
C      -3.0875303      2.0471941     -1.9035266
H      -0.5360702      5.0841932     -2.4970518
C      -0.5867370      4.2875392     -3.2477063
N      -1.3981300      3.1908299     -2.7338953
H      -6.1212449     -0.2115921      2.2662669
H      -6.1788733      1.8355028      3.7020935
C      -5.2658777      0.4660696      2.2780434
C      -5.3014066      1.6257666      3.0888670
N      -1.9850881      1.2273234     -2.0536730
H      -1.0309927      4.6714741     -4.1729207
C      -0.9750928      1.9457953     -2.5497231
C      -4.1635005      0.1833580      1.5035493
C      -4.2291474      2.4871102      3.0890338
H      -1.8566462     -0.9036941     -3.6308911
H      -4.1559097     -0.7155223      0.8856884
H      -4.2449254      3.3936008      3.6983861
C      -1.8873166     -0.1358887     -1.6046731
C      -1.8288054     -1.1657180     -2.5726859
C      -3.0287014      1.0451841      1.4973992
C      -3.0816212      2.2265955      2.2944385
H       0.0269769      1.5532133     -2.7169545
C      -1.8703446      0.7829978      0.6946080
C      -1.9875192      3.1368486      2.2509087
C      -1.8503205     -0.3734947     -0.2457643
C      -1.7249917     -2.4670972     -2.1581548
H      -2.0329475      4.0441714      2.8571286
H      -1.6634355     -3.2766949     -2.8874204
C      -0.8980354      2.8812886      1.4673243
C      -0.8165572      1.6941488      0.6803660
C      -1.7766606     -1.7358069      0.1941654
C      -1.7032074     -2.7831118     -0.7697812
O       0.2771159      1.5451700     -0.0723713
H      -0.0478989      3.5642181      1.4270328
C      -1.7335790     -2.0698418      1.5753626
C      -1.5948693     -4.1293189     -0.3238465
H      -1.7615258     -1.2667647      2.3138060
H      -1.5360515     -4.9245420     -1.0696204
C      -1.6326980     -3.3806302      1.9764709
C      -1.5619265     -4.4227476      1.0181460
H      -1.5976971     -3.6222449      3.0400312
H      -1.4783456     -5.4584220      1.3509425
H       2.9904510      2.2731789     -0.1358831
C       4.0766749     -0.4352768      1.2432948
C       3.8555105     -1.7684451      0.7787438
C       3.8150525     -0.3152025     -1.0470594
C       3.9731005      1.8576979      0.1395340
C       3.5137649     -1.7273553     -0.6125927
N       3.9364667      0.4194048      0.0984098
O       3.8866673      0.1227205     -2.1807586
O       4.3469146      0.0286992      2.3443785
H       4.0074253     -2.6454200      1.4011732
H       4.7333649      2.2527624     -0.5493228
H       3.7905995     -2.5137313     -1.3218191
H       4.2194129      2.1495187      1.1680537
          85

O       1.0515951     -0.1002600     -2.4812588
C       1.3917223     -1.2194847     -2.1766769
O       1.6536369     -2.1629347     -3.0823250
C       1.6761643     -1.7335801     -4.4454091
C       2.0570203     -2.9189493     -5.2988782
C       1.6851753     -1.7061572     -0.7982962
N       1.2086623     -0.8928916      0.2289680
C       1.3795418     -1.4111704      1.4092946
C       1.2064822     -0.6752818      2.6685083
C       1.3790264      0.7136118      2.7427866
C       1.1757773      1.3831197      3.9467600
C       0.8236789      0.6748314      5.0966105
C       0.6904268     -0.7147422      5.0423081
C       0.8884104     -1.3838116      3.8371700
H       0.6845045     -1.3380278     -4.7121047
H       2.4001074     -0.9099616     -4.5294608
H       2.0849839     -2.6238669     -6.3561315
H       1.3264749     -3.7314415     -5.1821778
H       3.0488890     -3.2963279     -5.0150150
H       0.6369657      0.5735073     -0.0617855
H       1.4708566     -2.7814653     -0.6994755
H       1.4870280     -2.5004994      1.5127744
H       1.6731931      1.2577603      1.8447786
H       1.2997044      2.4666601      3.9902506
H       0.6650659      1.2029330      6.0386216
H       0.4304634     -1.2758247      5.9415978
H       0.7815746     -2.4704148      3.7893881
H      -3.2749932      4.2134383     -2.3956472
C      -2.7189836      3.2832230     -2.3351210
H      -4.0247174      1.6766811     -1.4976760
H       0.4191837      3.9089091     -3.4511007
C      -3.0879174      2.0474245     -1.9034900
H      -0.5366117      5.0846018     -2.4975159
C      -0.5872184      4.2877761     -3.2479840
N      -1.3986562      3.1911719     -2.7339366
H      -6.1215910     -0.2113234      2.2665820
H      -6.1791004      1.8358966      3.7022468
C      -5.2662112      0.4663246      2.2782627
C      -5.3016628      1.6260779      3.0890068
N      -1.9855296      1.2275246     -2.0537275
H      -1.0314300      4.6714489     -4.1733240
C      -0.9756542      1.9461460     -2.5497922
C      -4.1638946      0.1835643      1.5037264
C      -4.2293580      2.4873832      3.0890978
H      -1.8580259     -0.9036832     -3.6309127
H      -4.1563615     -0.7153678      0.8859561
H      -4.2450983      3.3939052      3.6984065
C      -1.8881092     -0.1357420     -1.6047037
C      -1.8296376     -1.1656099     -2.5726925
C      -3.0290913      1.0453838      1.4974525
C      -3.0818689      2.2268011      2.2944792
H       0.0264806      1.5544991     -2.7175907
C      -1.8708988      0.7831947      0.6945164
C      -1.9876533      3.1369425      2.2507811
C      -1.8510972     -0.3732847     -0.2457943
C      -1.7254848     -2.4669782     -2.1581782
H      -2.0329370      4.0442820      2.8569969
H      -1.6643216     -3.2766344     -2.8874160
C      -0.8982604      2.8813328      1.4670181
C      -0.8167802      1.6940654      0.6799913
C      -1.7770959     -1.7355557      0.1941233
C      -1.7030819     -2.7829143     -0.7697886
O       0.2766694      1.5444026     -0.0726298
H      -0.0481282      3.5642756      1.4266688
C      -1.7344909     -2.0696963      1.5753419
C      -1.5946071     -4.1292076     -0.3237938
H      -1.7636454     -1.2667339      2.3138299
H      -1.5357813     -4.9244246     -1.0695721
C      -1.6327475     -3.3804207      1.9764215
C      -1.5616197     -4.4226380      1.0181507
H      -1.5979383     -3.6220455      3.0399892
H      -1.4777847     -5.4582660      1.3510044
H       2.9970849      2.2760418     -0.1358611
C       4.0762596     -0.4415151      1.2451232
C       3.8476966     -1.7669003      0.7828669
C       3.8098655     -0.3110767     -1.0472983
C       3.9776370      1.8559465      0.1401827
C       3.4798159     -1.7217664     -0.6165538
N       3.9342156      0.4183732      0.0969647
O       3.8837784      0.1235071     -2.1827911
O       4.3505927      0.0288580      2.3444491
H       3.9952043     -2.6474906      1.4011345
H       4.7402644      2.2492365     -0.5471897
H       3.7883961     -2.5001352     -1.3213853
H       4.2238831      2.1443854      1.1696739
          85

O       1.0485870     -0.1071002     -2.4727894
C       1.4047883     -1.2221419     -2.1762292
O       1.6575967     -2.1638976     -3.0834635
C       1.6735100     -1.7346381     -4.4474187
C       2.0570243     -2.9197182     -5.2998879
C       1.7235809     -1.7081602     -0.7948656
N       1.2149813     -0.8902067      0.2278729
C       1.3795020     -1.4086767      1.4070652
C       1.2036594     -0.6743686      2.6676460
C       1.3781209      0.7139423      2.7420259
C       1.1765434      1.3829848      3.9465682
C       0.8246893      0.6739837      5.0960010
C       0.6903474     -0.7155173      5.0414534
C       0.8866000     -1.3840297      3.8356634
H       0.6796037     -1.3429065     -4.7109151
H       2.3946788     -0.9087150     -4.5327458
H       2.0861636     -2.6251650     -6.3572224
H       1.3275270     -3.7331939     -5.1837348
H       3.0490322     -3.2951748     -5.0140809
H       0.6379625      0.5718326     -0.0624196
H       1.4715618     -2.7784989     -0.7007727
H       1.4913462     -2.4975656      1.5120468
H       1.6732116      1.2575091      1.8440081
H       1.3018964      2.4662901      3.9909544
H       0.6675219      1.2016310      6.0385222
H       0.4314532     -1.2767476      5.9409160
H       0.7800788     -2.4706354      3.7873907
H      -3.2754584      4.2137708     -2.3954632
C      -2.7194712      3.2835337     -2.3350490
H      -4.0251755      1.6769826     -1.4975597
H       0.4186762      3.9091971     -3.4512037
C      -3.0884039      2.0477194     -1.9034477
H      -0.5372858      5.0850171     -2.4979490
C      -0.5877683      4.2880353     -3.2482501
N      -1.3991929      3.1914771     -2.7339740
H      -6.1219908     -0.2109996      2.2669781
H      -6.1793051      1.8363578      3.7024563
C      -5.2665905      0.4666241      2.2785271
C      -5.3019166      1.6264458      3.0891795
N      -1.9861136      1.2277387     -2.0537860
H      -1.0319825      4.6714240     -4.1737020
C      -0.9762952      1.9464187     -2.5498758
C      -4.1643606      0.1837935      1.5039079
C      -4.2295462      2.4876947      3.0891743
H      -1.8596451     -0.9035965     -3.6309778
H      -4.1569266     -0.7151755      0.8861825
H      -4.2452191      3.3942372      3.6984551
C      -1.8889805     -0.1355663     -1.6047745
C      -1.8304971     -1.1654306     -2.5727506
C      -3.0295522      1.0456002      1.4974651
C      -3.0821153      2.2270240      2.2944787
H       0.0258490      1.5554996     -2.7182539
C      -1.8715282      0.7833381      0.6943925
C      -1.9877044      3.1369631      2.2504964
C      -1.8518298     -0.3730659     -0.2458740
C      -1.7257480     -2.4667803     -2.1582674
H      -2.0327566      4.0443869      2.8566116
H      -1.6649867     -3.2764951     -2.8874791
C      -0.8983910      2.8811729      1.4665831
C      -0.8169286      1.6937026      0.6796215
C      -1.7772374     -1.7352481      0.1940342
C      -1.7026283     -2.7826353     -0.7698604
O       0.2762800      1.5431935     -0.0729214
H      -0.0482479      3.5641085      1.4261497
C      -1.7352946     -2.0694726      1.5752959
C      -1.5940594     -4.1290112     -0.3237881
H      -1.7657875     -1.2666171      2.3138233
H      -1.5352372     -4.9242355     -1.0695563
C      -1.6327928     -3.3801362      1.9763441
C      -1.5611828     -4.4224364      1.0181117
H      -1.5984126     -3.6218074      3.0399173
H      -1.4772100     -5.4580223      1.3510298
H       3.0055599      2.2794323     -0.1353204
C       4.0766640     -0.4476118      1.2469319
C       3.8377713     -1.7649801      0.7861762
C       3.8021933     -0.3060118     -1.0472619
C       3.9839726      1.8547288      0.1416851
C       3.4441147     -1.7151045     -0.6204947
N       3.9337897      0.4178256      0.0959158
O       3.8809232      0.1254780     -2.1842831
O       4.3561677      0.0289762      2.3444046
H       3.9790834     -2.6495743      1.4001337
H       4.7492425      2.2468551     -0.5435471
H       3.7869112     -2.4846505     -1.3221454
H       4.2295083      2.1394987      1.1723835
          85

O       1.0423686     -0.1187799     -2.4608377
C       1.4180780     -1.2293496     -2.1746713
O       1.6708148     -2.1665213     -3.0852691
C       1.6680663     -1.7377749     -4.4500033
C       2.0565213     -2.9206736     -5.3033748
C       1.7470375     -1.7119339     -0.7924899
N       1.2215978     -0.8869771      0.2241990
C       1.3786346     -1.4045137      1.4037402
C       1.1990446     -0.6719590      2.6648829
C       1.3765157      0.7155795      2.7406632
C       1.1781572      1.3829036      3.9466188
C       0.8268761      0.6722149      5.0951618
C       0.6896131     -0.7169913      5.0389355
C       0.8823221     -1.3837532      3.8316730
H       0.6674016     -1.3569110     -4.7037463
H       2.3799294     -0.9045882     -4.5428535
H       2.0829835     -2.6264351     -6.3608325
H       1.3319697     -3.7383696     -5.1859476
H       3.0509901     -3.2900374     -5.0181617
H       0.6383990      0.5696045     -0.0653652
H       1.4881318     -2.7767106     -0.6958572
H       1.4902170     -2.4932995      1.5104304
H       1.6727869      1.2591633      1.8430136
H       1.3062488      2.4657892      3.9931331
H       0.6728873      1.1985067      6.0389728
H       0.4319339     -1.2790191      5.9382314
H       0.7749564     -2.4701864      3.7815587
H      -3.2760277      4.2145587     -2.3951501
C      -2.7203084      3.2841464     -2.3349125
H      -4.0262966      1.6778860     -1.4972964
H       0.4176624      3.9098183     -3.4514341
C      -3.0895118      2.0484065     -1.9033509
H      -0.5388370      5.0856966     -2.4987872
C      -0.5889392      4.2883828     -3.2487571
N      -1.4001095      3.1917745     -2.7340661
H      -6.1229055     -0.2101198      2.2679533
H      -6.1795026      1.8375247      3.7030792
C      -5.2674105      0.4673939      2.2791320
C      -5.3023103      1.6273635      3.0896043
N      -1.9875291      1.2281084     -2.0539348
H      -1.0332162      4.6711991     -4.1744179
C      -0.9775118      1.9464939     -2.5500839
C      -4.1654472      0.1843418      1.5042148
C      -4.2297547      2.4884388      3.0892347
H      -1.8626311     -0.9033081     -3.6312013
H      -4.1582584     -0.7147116      0.8865893
H      -4.2451627      3.3950371      3.6984472
C      -1.8907842     -0.1352772     -1.6050323
C      -1.8322626     -1.1650830     -2.5729949
C      -3.0305127      1.0460008      1.4973482
C      -3.0825301      2.2274866      2.2942777
H       0.0244580      1.5553093     -2.7189000
C      -1.8727861      0.7833871      0.6940534
C      -1.9876528      3.1369279      2.2496607
C      -1.8532353     -0.3728011     -0.2461991
C      -1.7260078     -2.4663194     -2.1585519
H      -2.0322027      4.0445943      2.8554714
H      -1.6654844     -3.2760869     -2.8877452
C      -0.8984944      2.8805264      1.4656307
C      -0.8172898      1.6927206      0.6789015
C      -1.7774565     -1.7347941      0.1937443
C      -1.7016616     -2.7821163     -0.7701317
O       0.2754673      1.5412995     -0.0736424
H      -0.0481964      3.5632660      1.4249224
C      -1.7364943     -2.0689772      1.5750593
C      -1.5924032     -4.1284347     -0.3239308
H      -1.7688814     -1.2662134      2.3135776
H      -1.5330181     -4.9236809     -1.0696332
C      -1.6330154     -3.3795539      1.9761543
C      -1.5599962     -4.4218254      1.0179787
H      -1.5995205     -3.6212603      3.0397500
H      -1.4756126     -5.4573535      1.3509692
H       3.0274351      2.2901660     -0.1331717
C       4.0785184     -0.4515776      1.2492209
C       3.8240597     -1.7627052      0.7894252
C       3.7919042     -0.2983687     -1.0457860
C       4.0003618      1.8546876      0.1467595
C       3.4221603     -1.7071352     -0.6220616
N       3.9345243      0.4189452      0.0975352
O       3.8724376      0.1317323     -2.1837589
O       4.3694717      0.0267172      2.3441323
H       3.9551399     -2.6510314      1.4002549
H       4.7723429      2.2413120     -0.5342975
H       3.7808714     -2.4691158     -1.3221272
H       4.2446986      2.1336779      1.1793191
          85

O       1.0312085     -0.1317568     -2.4581717
C       1.4202531     -1.2375542     -2.1755327
O       1.6875090     -2.1694291     -3.0866099
C       1.6626337     -1.7427557     -4.4517793
C       2.0558853     -2.9212418     -5.3089680
C       1.7547262     -1.7165957     -0.7918440
N       1.2199504     -0.8867168      0.2205299
C       1.3760334     -1.4017457      1.4002853
C       1.1954173     -0.6685582      2.6611778
C       1.3759335      0.7183084      2.7391518
C       1.1808020      1.3831127      3.9471607
C       0.8295538      0.6704119      5.0944793
C       0.6875928     -0.7181662      5.0351752
C       0.8769847     -1.3822511      3.8260974
H       0.6539483     -1.3754585     -4.6930570
H       2.3619630     -0.9001619     -4.5544716
H       2.0690044     -2.6264609     -6.3665416
H       1.3416700     -3.7470092     -5.1848262
H       3.0571134     -3.2794955     -5.0333608
H       0.6371626      0.5677160     -0.0685786
H       1.4688286     -2.7837024     -0.6937887
H       1.4872490     -2.4904162      1.5094177
H       1.6728821      1.2628419      1.8422327
H       1.3119033      2.4655016      3.9963979
H       0.6790080      1.1947986      6.0398937
H       0.4295001     -1.2816384      5.9334188
H       0.7670463     -2.4682863      3.7732656
H      -3.2763288      4.2156385     -2.3947166
C      -2.7212286      3.2848377     -2.3347316
H      -4.0280267      1.6793209     -1.4969655
H       0.4165106      3.9100249     -3.4517812
C      -3.0911294      2.0493021     -1.9032489
H      -0.5406451      5.0860184     -2.4999248
C      -0.5902787      4.2882683     -3.2494553
N      -1.4011966      3.1917047     -2.7342429
H      -6.1242054     -0.2084869      2.2694072
H      -6.1794407      1.8395184      3.7040994
C      -5.2685040      0.4687776      2.2799869
C      -5.3026311      1.6289409      3.0902202
N      -1.9897408      1.2283164     -2.0542893
H      -1.0346237      4.6703825     -4.1753768
C      -0.9792878      1.9460949     -2.5505045
C      -4.1670065      0.1852341      1.5045553
C      -4.2297752      2.4896734      3.0891313
H      -1.8664995     -0.9031545     -3.6317059
H      -4.1603600     -0.7139721      0.8871217
H      -4.2445920      3.3963885      3.6981886
C      -1.8935959     -0.1351506     -1.6055768
C      -1.8350760     -1.1649139     -2.5735259
C      -3.0317575      1.0465030      1.4970023
C      -3.0829820      2.2281464      2.2937293
H       0.0223268      1.5542596     -2.7197302
C      -1.8743829      0.7833123      0.6934039
C      -1.9875545      3.1369442      2.2485222
C      -1.8553732     -0.3727079     -0.2468373
C      -1.7266166     -2.4659742     -2.1591454
H      -2.0314545      4.0448254      2.8540650
H      -1.6657916     -3.2757692     -2.8883136
C      -0.8986408      2.8797251      1.4644219
C      -0.8181028      1.6917708      0.6777531
C      -1.7783753     -1.7345014      0.1931628
C      -1.7009391     -2.7816772     -0.7706828
O       0.2742072      1.5399507     -0.0750612
H      -0.0480135      3.5620365      1.4233638
C      -1.7380089     -2.0684601      1.5745390
C      -1.5897492     -4.1277828     -0.3242930
H      -1.7720944     -1.2656889      2.3129360
H      -1.5288470     -4.9230420     -1.0698610
C      -1.6333627     -3.3788715      1.9757848
C      -1.5579728     -4.4210336      1.0176648
H      -1.6008057     -3.6206005      3.0394047
H      -1.4724471     -5.4564301      1.3507584
H       3.0605068      2.3064738     -0.1293636
C       4.0852394     -0.4530862      1.2526149
C       3.8213612     -1.7596481      0.7931364
C       3.7863204     -0.2907905     -1.0407030
C       4.0251655      1.8563363      0.1549026
C       3.4138265     -1.7026243     -0.6203887
N       3.9389948      0.4219321      0.1028966
O       3.8590468      0.1422727     -2.1781923
O       4.3862149      0.0229258      2.3461496
H       3.9543035     -2.6493977      1.4012246
H       4.8059931      2.2333640     -0.5215571
H       3.7973073     -2.4593525     -1.3209335
H       4.2684101      2.1295782      1.1891902
          85

O       1.0201267     -0.1433823     -2.4564648
C       1.4274168     -1.2434134     -2.1746408
O       1.7049748     -2.1714403     -3.0868553
C       1.6607171     -1.7466083     -4.4521984
C       2.0568713     -2.9214048     -5.3130336
C       1.7654014     -1.7180109     -0.7909221
N       1.2242519     -0.8890653      0.2189438
C       1.3779017     -1.4014680      1.3998942
C       1.1943516     -0.6671756      2.6594131
C       1.3770952      0.7193660      2.7381824
C       1.1835115      1.3832267      3.9469991
C       0.8310956      0.6700530      5.0936914
C       0.6855585     -0.7180912      5.0330566
C       0.8737408     -1.3812496      3.8234814
H       0.6454483     -1.3904807     -4.6824671
H       2.3495131     -0.8963899     -4.5637861
H       2.0540918     -2.6272958     -6.3709159
H       1.3532004     -3.7548065     -5.1798440
H       3.0651795     -3.2685452     -5.0491673
H       0.6352292      0.5668254     -0.0715909
H       1.5063547     -2.7828124     -0.6899271
H       1.4949640     -2.4893419      1.5109819
H       1.6755525      1.2638578      1.8416519
H       1.3171374      2.4652388      3.9975288
H       0.6823473      1.1937795      6.0397322
H       0.4262245     -1.2818597      5.9307529
H       0.7620123     -2.4670211      3.7694522
H      -3.2765067      4.2164495     -2.3942695
C      -2.7220068      3.2852697     -2.3345834
H      -4.0295419      1.6804988     -1.4965523
H       0.4157378      3.9095961     -3.4518232
C      -3.0925604      2.0499256     -1.9031429
H      -0.5424087      5.0861542     -2.5016507
C      -0.5913082      4.2876550     -3.2504294
N      -1.4021757      3.1913504     -2.7345695
H      -6.1254468     -0.2066049      2.2707956
H      -6.1793713      1.8418461      3.7049003
C      -5.2695299      0.4703965      2.2807548
C      -5.3029129      1.6308138      3.0906752
N      -1.9917830      1.2282434     -2.0547254
H      -1.0352911      4.6687081     -4.1769714
C      -0.9809545      1.9454003     -2.5511376
C      -4.1684753      0.1862774      1.5048837
C      -4.2297710      2.4911904      3.0888741
H      -1.8699693     -0.9033579     -3.6320921
H      -4.1623068     -0.7131397      0.8877307
H      -4.2440006      3.3980598      3.6977160
C      -1.8961197     -0.1352775     -1.6060720
C      -1.8376024     -1.1650530     -2.5739361
C      -3.0329247      1.0471579      1.4966378
C      -3.0833738      2.2290120      2.2930946
H       0.0203080      1.5527530     -2.7207035
C      -1.8758499      0.7833141      0.6928218
C      -1.9874450      3.1371915      2.2474245
C      -1.8571831     -0.3727060     -0.2473647
C      -1.7270889     -2.4658991     -2.1595146
H      -2.0307507      4.0452593      2.8527293
H      -1.6659904     -3.2757688     -2.8886009
C      -0.8986870      2.8791570      1.4633361
C      -0.8189504      1.6909581      0.6769801
C      -1.7789233     -1.7342890      0.1927664
C      -1.6999817     -2.7814104     -0.7710308
O       0.2731895      1.5385643     -0.0761122
H      -0.0476495      3.5609526      1.4220665
C      -1.7390734     -2.0680252      1.5741980
C      -1.5869147     -4.1272710     -0.3244384
H      -1.7747639     -1.2652638      2.3125133
H      -1.5245633     -4.9225418     -1.0698727
C      -1.6332588     -3.3782882      1.9756017
C      -1.5556253     -4.4203551      1.0175733
H      -1.6014971     -3.6199778      3.0392547
H      -1.4689281     -5.4556162      1.3507908
H       3.0904035      2.3210812     -0.1259717
C       4.0964545     -0.4510402      1.2562599
C       3.8289377     -1.7560840      0.7940622
C       3.7852381     -0.2807252     -1.0355111
C       4.0481467      1.8603167      0.1634767
C       3.4194974     -1.6954141     -0.6185591
N       3.9471139      0.4273475      0.1092877
O       3.8487693      0.1570335     -2.1720993
O       4.4022448      0.0219203      2.3496888
H       3.9601743     -2.6476703      1.4001057
H       4.8367935      2.2302603     -0.5079146
H       3.7945562     -2.4472874     -1.3212597
H       4.2883697      2.1293178      1.1995313
          85

O       1.0070788     -0.1503656     -2.4656806
C       1.4169772     -1.2481187     -2.1803443
O       1.7013045     -2.1759152     -3.0907822
C       1.6541500     -1.7515860     -4.4561325
C       2.0547796     -2.9235224     -5.3186913
C       1.7511143     -1.7194521     -0.7941123
N       1.2102988     -0.8873031      0.2140104
C       1.3672206     -1.3981062      1.3954244
C       1.1885655     -0.6636742      2.6553043
C       1.3759749      0.7221496      2.7367168
C       1.1864054      1.3835891      3.9476358
C       0.8333904      0.6687740      5.0931738
C       0.6832903     -0.7187651      5.0295751
C       0.8676582     -1.3794491      3.8181869
H       0.6370263     -1.4003342     -4.6850176
H       2.3382987     -0.8977856     -4.5681458
H       2.0451504     -2.6287641     -6.3763429
H       1.3572421     -3.7616765     -5.1829658
H       3.0666034     -3.2641065     -5.0597443
H       0.6315254      0.5653059     -0.0744657
H       1.4947117     -2.7817028     -0.6909551
H       1.4797672     -2.4862665      1.5072539
H       1.6744525      1.2678284      1.8408218
H       1.3234938      2.4650933      4.0007383
H       0.6877152      1.1907989      6.0406680
H       0.4234885     -1.2838719      5.9262995
H       0.7525848     -2.4647505      3.7615246
H      -3.2770188      4.2175283     -2.3936320
C      -2.7230195      3.2860286     -2.3343314
H      -4.0313179      1.6816856     -1.4967411
H       0.4147299      3.9088166     -3.4524477
C      -3.0941887      2.0507303     -1.9033322
H      -0.5419444      5.0855586     -2.5010286
C      -0.5919085      4.2874979     -3.2502011
N      -1.4032821      3.1915240     -2.7344862
H      -6.1262718     -0.2056598      2.2716020
H      -6.1791898      1.8427711      3.7058033
C      -5.2701797      0.4711279      2.2813074
C      -5.3030026      1.6315168      3.0912684
N      -1.9939257      1.2284238     -2.0553707
H      -1.0361711      4.6694028     -4.1762539
C      -0.9827352      1.9453142     -2.5515087
C      -4.1694874      0.1867928      1.5049981
C      -4.2296195      2.4916030      3.0890830
H      -1.8740675     -0.9034000     -3.6328917
H      -4.1638632     -0.7125380      0.8877220
H      -4.2433865      3.3984712      3.6979438
C      -1.8991902     -0.1352637     -1.6068872
C      -1.8413421     -1.1651358     -2.5747609
C      -3.0336912      1.0473706      1.4963565
C      -3.0835871      2.2291520      2.2929357
H       0.0182314      1.5523607     -2.7214848
C      -1.8771319      0.7833842      0.6919129
C      -1.9874256      3.1370450      2.2470354
C      -1.8597798     -0.3726838     -0.2482549
C      -1.7296404     -2.4658826     -2.1604691
H      -2.0302227      4.0449361      2.8526489
H      -1.6681870     -3.2756982     -2.8895966
C      -0.8991838      2.8789648      1.4623456
C      -0.8201149      1.6911444      0.6752198
C      -1.7816122     -1.7343768      0.1918324
C      -1.7016141     -2.7813851     -0.7719304
O       0.2713285      1.5389484     -0.0783164
H      -0.0479619      3.5605220      1.4207875
C      -1.7416067     -2.0681142      1.5732290
C      -1.5863356     -4.1270688     -0.3253473
H      -1.7782129     -1.2653917      2.3115352
H      -1.5227386     -4.9222431     -1.0707868
C      -1.6341319     -3.3782428      1.9746877
C      -1.5546071     -4.4201547      1.0166737
H      -1.6023319     -3.6199129      3.0383461
H      -1.4662526     -5.4552887      1.3498688
H       3.1133838      2.3276505     -0.1229612
C       4.0939247     -0.4571660      1.2588337
C       3.8112810     -1.7601795      0.7973847
C       3.7729671     -0.2836300     -1.0313133
C       4.0653828      1.8549748      0.1673952
C       3.4016397     -1.6980060     -0.6159889
N       3.9467561      0.4226427      0.1132289
O       3.8353363      0.1555015     -2.1672970
O       4.4096986      0.0127798      2.3511216
H       3.9423186     -2.6529606      1.4019251
H       4.8592737      2.2156281     -0.5032202
H       3.7767501     -2.4478430     -1.3176233
H       4.3082228      2.1209338      1.2036143
          85

O       0.9978198     -0.1529636     -2.4729531
C       1.4053245     -1.2507962     -2.1859180
O       1.6919122     -2.1793217     -3.0946291
C       1.6464635     -1.7563046     -4.4604816
C       2.0526708     -2.9272631     -5.3217353
C       1.7383613     -1.7207235     -0.7981215
N       1.1964518     -0.8855156      0.2091448
C       1.3568626     -1.3958921      1.3906909
C       1.1825845     -0.6614411      2.6516371
C       1.3740695      0.7237043      2.7347833
C       1.1888115      1.3839154      3.9471693
C       0.8358831      0.6685738      5.0924055
C       0.6814400     -0.7183784      5.0269722
C       0.8616022     -1.3777303      3.8141895
H       0.6286856     -1.4085349     -4.6916210
H       2.3279212     -0.9003637     -4.5717078
H       2.0443897     -2.6326752     -6.3794203
H       1.3576344     -3.7676820     -5.1874930
H       3.0650354     -3.2643862     -5.0605485
H       0.6277534      0.5638039     -0.0769373
H       1.4757233     -2.7810092     -0.6942188
H       1.4617197     -2.4847986      1.5029101
H       1.6719964      1.2699902      1.8390260
H       1.3290985      2.4649447      4.0015474
H       0.6935666      1.1896713      6.0409406
H       0.4215902     -1.2841199      5.9232844
H       0.7432677     -2.4626173      3.7562516
H      -3.2778627      4.2187411     -2.3928299
C      -2.7243544      3.2869221     -2.3340456
H      -4.0334035      1.6828885     -1.4971052
H       0.4135190      3.9080869     -3.4528724
C      -3.0961326      2.0516097     -1.9036552
H      -0.5411779      5.0847692     -2.4994058
C      -0.5925715      4.2875936     -3.2494336
N      -1.4046973      3.1918837     -2.7343737
H      -6.1272960     -0.2050031      2.2723535
H      -6.1792708      1.8431373      3.7070312
C      -5.2710483      0.4715917      2.2819497
C      -5.3033337      1.6317963      3.0921709
N      -1.9963721      1.2287064     -2.0561999
H      -1.0371107      4.6710241     -4.1747254
C      -0.9848523      1.9453849     -2.5520390
C      -4.1707101      0.1872435      1.5051762
C      -4.2297236      2.4916166      3.0898294
H      -1.8789188     -0.9033775     -3.6337620
H      -4.1655886     -0.7118719      0.8876039
H      -4.2430876      3.3983514      3.6989040
C      -1.9025709     -0.1351213     -1.6077682
C      -1.8457959     -1.1651303     -2.5756485
C      -3.0347474      1.0475940      1.4962541
C      -3.0840636      2.2291477      2.2932050
H       0.0158220      1.5521585     -2.7224940
C      -1.8788512      0.7836063      0.6909614
C      -1.9877843      3.1368945      2.2469749
C      -1.8628243     -0.3725367     -0.2491803
C      -1.7336949     -2.4658414     -2.1614731
H      -2.0300130      4.0445206      2.8530347
H      -1.6723731     -3.2756333     -2.8906414
C      -0.9002800      2.8790239      1.4612675
C      -0.8218404      1.6916065      0.6733070
C      -1.7851474     -1.7344115      0.1908583
C      -1.7046994     -2.7813317     -0.7729038
O       0.2688164      1.5394944     -0.0807999
H      -0.0490240      3.5605063      1.4192368
C      -1.7448505     -2.0683366      1.5721922
C      -1.5875160     -4.1269018     -0.3264841
H      -1.7820716     -1.2657491      2.3105936
H      -1.5231634     -4.9219086     -1.0720399
C      -1.6357658     -3.3783831      1.9735618
C      -1.5548182     -4.4201083      1.0154978
H      -1.6036503     -3.6200984      3.0372055
H      -1.4648216     -5.4551345      1.3485727
H       3.1270839      2.3282226     -0.1198356
C       4.0855696     -0.4659623      1.2593053
C       3.7906402     -1.7660772      0.7994712
C       3.7602510     -0.2893293     -1.0297486
C       4.0744414      1.8462935      0.1686851
C       3.3809121     -1.7032897     -0.6155544
N       3.9410293      0.4153981      0.1147691
O       3.8237847      0.1505596     -2.1651780
O       4.4086121      0.0006887      2.3505635
H       3.9217029     -2.6595706      1.4026282
H       4.8703993      2.1982798     -0.5035412
H       3.7596674     -2.4531119     -1.3144242
H       4.3216911      2.1101391      1.2043247
          85

O       0.9825281     -0.1630462     -2.4771797
C       1.4027693     -1.2558476     -2.1891269
O       1.6974201     -2.1828127     -3.0969216
C       1.6412517     -1.7631485     -4.4635177
C       2.0540163     -2.9318511     -5.3248401
C       1.7389601     -1.7221184     -0.8000306
N       1.1941032     -0.8864916      0.2060348
C       1.3536894     -1.3960470      1.3879560
C       1.1795588     -0.6607444      2.6487666
C       1.3756663      0.7237285      2.7318208
C       1.1934406      1.3844947      3.9444010
C       0.8379986      0.6704291      5.0896540
C       0.6779831     -0.7158887      5.0240877
C       0.8557755     -1.3758577      3.8112870
H       0.6189313     -1.4254349     -4.6902309
H       2.3139482     -0.9007995     -4.5802091
H       2.0359124     -2.6394622     -6.3830200
H       1.3683051     -3.7790622     -5.1845626
H       3.0714312     -3.2582237     -5.0693529
H       0.6241985      0.5627035     -0.0803684
H       1.4696677     -2.7845562     -0.6952281
H       1.4572807     -2.4850526      1.5010950
H       1.6750780      1.2688877      1.8357914
H       1.3380353      2.4649507      3.9988938
H       0.6980568      1.1919851      6.0382781
H       0.4160309     -1.2807096      5.9203620
H       0.7338057     -2.4603419      3.7534267
H      -3.2787526      4.2204930     -2.3917714
C      -2.7264293      3.2879166     -2.3338163
H      -4.0371481      1.6851100     -1.4971810
H       0.4119691      3.9057215     -3.4530815
C      -3.0996062      2.0528243     -1.9040147
H      -0.5415074      5.0832806     -2.4994859
C      -0.5937251      4.2862961     -3.2496607
N      -1.4070745      3.1913827     -2.7348239
H      -6.1296243     -0.2022420      2.2743177
H      -6.1792965      1.8459996      3.7089333
C      -5.2729710      0.4738495      2.2832244
C      -5.3039467      1.6341060      3.0934251
N      -2.0010313      1.2285209     -2.0575806
H      -1.0377654      4.6703845     -4.1749234
C      -0.9887768      1.9442251     -2.5534352
C      -4.1733963      0.1888417      1.5056185
C      -4.2298041      2.4932673      3.0902901
H      -1.8879337     -0.9040478     -3.6349117
H      -4.1692218     -0.7103028      0.8880711
H      -4.2421600      3.4000041      3.6993863
C      -1.9084761     -0.1354193     -1.6090693
C      -1.8532263     -1.1656378     -2.5768146
C      -3.0369549      1.0485300      1.4957909
C      -3.0848999      2.2301023      2.2928169
H       0.0113165      1.5499646     -2.7245552
C      -1.8819167      0.7837546      0.6895670
C      -1.9880379      3.1371164      2.2458279
C      -1.8673062     -0.3725580     -0.2504844
C      -1.7392463     -2.4661430     -2.1626271
H      -2.0291740      4.0447239      2.8519958
H      -1.6783652     -3.2760449     -2.8917256
C      -0.9013409      2.8785284      1.4592456
C      -0.8243144      1.6910650      0.6711590
C      -1.7888019     -1.7343822      0.1896683
C      -1.7074727     -2.7813019     -0.7740379
O       0.2656147      1.5384025     -0.0838118
H      -0.0496030      3.5593643      1.4165335
C      -1.7480982     -2.0682736      1.5709992
C      -1.5869753     -4.1265812     -0.3275961
H      -1.7868467     -1.2657983      2.3094309
H      -1.5212761     -4.9214772     -1.0731541
C      -1.6365174     -3.3781237      1.9723926
C      -1.5530458     -4.4196853      1.0143786
H      -1.6042485     -3.6198007      3.0360423
H      -1.4604941     -5.4544863      1.3474695
H       3.1584390      2.3383360     -0.1124466
C       4.0903694     -0.4717700      1.2627091
C       3.7869417     -1.7677105      0.7989376
C       3.7544705     -0.2821903     -1.0244284
C       4.0981360      1.8441106      0.1795014
C       3.3771644     -1.6986633     -0.6165383
N       3.9472792      0.4153900      0.1220252
O       3.8073270      0.1640501     -2.1580542
O       4.4191755     -0.0111281      2.3546272
H       3.9164231     -2.6643083      1.3978950
H       4.9011524      2.1876175     -0.4886605
H       3.7645181     -2.4439605     -1.3187814
H       4.3442506      2.1028401      1.2166780
          85

O       0.9723212     -0.1721085     -2.4795475
C       1.4037790     -1.2598989     -2.1903840
O       1.7052973     -2.1854893     -3.0979340
C       1.6389466     -1.7693020     -4.4649588
C       2.0556088     -2.9362735     -5.3266136
C       1.7386455     -1.7234643     -0.8009993
N       1.1974786     -0.8879605      0.2040990
C       1.3549202     -1.3970663      1.3866003
C       1.1792930     -0.6605660      2.6464319
C       1.3787992      0.7234496      2.7285994
C       1.1979904      1.3852966      3.9407550
C       0.8396706      0.6729357      5.0862038
C       0.6750186     -0.7128266      5.0212352
C       0.8519012     -1.3740093      3.8090295
H       0.6134572     -1.4392982     -4.6868857
H       2.3045335     -0.9026199     -4.5872391
H       2.0293089     -2.6463288     -6.3851328
H       1.3772240     -3.7878908     -5.1809060
H       3.0763826     -3.2546780     -5.0765030
H       0.6220137      0.5629702     -0.0836347
H       1.4693180     -2.7890478     -0.6947523
H       1.4581713     -2.4860621      1.5002786
H       1.6801737      1.2671144      1.8321864
H       1.3460200      2.4652848      3.9948238
H       0.7010155      1.1953780      6.0344863
H       0.4105064     -1.2763096      5.9176103
H       0.7268461     -2.4581441      3.7516802
H      -3.2798469      4.2221998     -2.3909251
C      -2.7287678      3.2888436     -2.3336877
H      -4.0412596      1.6874266     -1.4971818
H       0.4103173      3.9033339     -3.4528130
C      -3.1034283      2.0540451     -1.9043346
H      -0.5428129      5.0819841     -2.5002448
C      -0.5952033      4.2847834     -3.2501719
N      -1.4097225      3.1907089     -2.7353809
H      -6.1322059     -0.1991914      2.2765567
H      -6.1794215      1.8492111      3.7110145
C      -5.2751350      0.4763783      2.2846611
C      -5.3047201      1.6367253      3.0947905
N      -2.0060663      1.2283150     -2.0588671
H      -1.0383692      4.6688972     -4.1758478
C      -0.9930203      1.9428724     -2.5548103
C      -4.1763748      0.1906085      1.5061614
C      -4.2300356      2.4951994      3.0907123
H      -1.8969530     -0.9046280     -3.6359966
H      -4.1731819     -0.7086462      0.8887483
H      -4.2412880      3.4019733      3.6997727
C      -1.9144610     -0.1356902     -1.6102991
C      -1.8606004     -1.1660493     -2.5779235
C      -3.0394072      1.0495808      1.4953083
C      -3.0859521      2.2312326      2.2923197
H       0.0065524      1.5473764     -2.7262757
C      -1.8851086      0.7839221      0.6882498
C      -1.9884879      3.1374654      2.2445197
C      -1.8716806     -0.3725536     -0.2516990
C      -1.7448392     -2.4663644     -2.1636868
H      -2.0285392      4.0451459      2.8506447
H      -1.6843875     -3.2763726     -2.8927072
C      -0.9025136      2.8779955      1.4572364
C      -0.8268277      1.6903532      0.6692978
C      -1.7921287     -1.7342533      0.1885625
C      -1.7103252     -2.7811951     -0.7751296
O       0.2626068      1.5374429     -0.0865553
H      -0.0502759      3.5581505      1.4138395
C      -1.7508103     -2.0680489      1.5698945
C      -1.5869202     -4.1261837     -0.3286631
H      -1.7907108     -1.2656561      2.3083507
H      -1.5202458     -4.9210131     -1.0742141
C      -1.6372161     -3.3777260      1.9712882
C      -1.5517648     -4.4191347      1.0133119
H      -1.6047086     -3.6193746      3.0349396
H      -1.4570280     -5.4537260      1.3464269
H       3.1913157      2.3511693     -0.1086773
C       4.0979147     -0.4753879      1.2664897
C       3.7887645     -1.7688983      0.7968604
C       3.7548616     -0.2728168     -1.0187759
C       4.1223661      1.8441677      0.1920602
C       3.3859386     -1.6922748     -0.6180720
N       3.9557406      0.4170242      0.1300024
O       3.7953308      0.1813972     -2.1500128
O       4.4323094     -0.0208872      2.3597246
H       3.9170911     -2.6685276      1.3916736
H       4.9367683      2.1808258     -0.4671973
H       3.7783686     -2.4332743     -1.3261201
H       4.3617665      2.0968515      1.2323855
          85

O       0.9625435     -0.1800794     -2.4815809
C       1.4052715     -1.2635800     -2.1918604
O       1.7135221     -2.1877705     -3.0986620
C       1.6366312     -1.7751815     -4.4665473
C       2.0582393     -2.9410374     -5.3275992
C       1.7458421     -1.7236764     -0.8020680
N       1.1996071     -0.8891731      0.2028296
C       1.3548384     -1.3977847      1.3851720
C       1.1790518     -0.6602013      2.6443192
C       1.3823921      0.7232998      2.7252125
C       1.2025832      1.3866556      3.9367088
C       0.8409483      0.6762210      5.0823333
C       0.6722358     -0.7091150      5.0184529
C       0.8486447     -1.3719062      3.8070533
H       0.6065424     -1.4544397     -4.6837015
H       2.2942788     -0.9026293     -4.5949683
H       2.0217688     -2.6538425     -6.3869414
H       1.3884360     -3.7990340     -5.1745863
H       3.0843804     -3.2493563     -5.0836608
H       0.6193214      0.5621737     -0.0861448
H       1.4765712     -2.7900659     -0.6948741
H       1.4618067     -2.4863610      1.4996462
H       1.6859636      1.2650786      1.8283365
H       1.3539197      2.4662258      3.9901861
H       0.7029712      1.1998672      6.0300663
H       0.4051959     -1.2709904      5.9150798
H       0.7208524     -2.4557522      3.7504473
H      -3.2808359      4.2237030     -2.3905427
C      -2.7310391      3.2895555     -2.3338401
H      -4.0454371      1.6896919     -1.4973402
H       0.4087921      3.9004589     -3.4527862
C      -3.1072648      2.0551314     -1.9047641
H      -0.5437912      5.0802695     -2.5011296
C      -0.5964963      4.2828849     -3.2508336
N      -1.4122800      3.1897356     -2.7360758
H      -6.1346998     -0.1960790      2.2786411
H      -6.1795054      1.8525942      3.7127676
C      -5.2771978      0.4789502      2.2859362
C      -5.3054221      1.6394580      3.0958927
N      -2.0111036      1.2279531     -2.0600398
H      -1.0388122      4.6671049     -4.1768724
C      -0.9972333      1.9412617     -2.5561129
C      -4.1792058      0.1923205      1.5066424
C      -4.2301936      2.4972404      3.0908552
H      -1.9061158     -0.9052735     -3.6370048
H      -4.1769739     -0.7070973      0.8894361
H      -4.2403695      3.4041027      3.6998008
C      -1.9203686     -0.1360708     -1.6114202
C      -1.8679870     -1.1665381     -2.5789605
C      -3.0417024      1.0505573      1.4947874
C      -3.0868829      2.2323805      2.2916487
H       0.0017633      1.5444685     -2.7279496
C      -1.8880645      0.7839378      0.6870636
C      -1.9887823      3.1377939      2.2430779
C      -1.8757832     -0.3726629     -0.2528204
C      -1.7507224     -2.4667062     -2.1646996
H      -2.0278300      4.0456221      2.8490455
H      -1.6911396     -3.2768503     -2.8936526
C      -0.9033882      2.8772969      1.4553390
C      -0.8290629      1.6894322      0.6676559
C      -1.7950676     -1.7342110      0.1875179
C      -1.7133545     -2.7812127     -0.7761679
O       0.2598731      1.5359032     -0.0889272
H      -0.0506043      3.5567190      1.4113168
C      -1.7525527     -2.0678207      1.5688653
C      -1.5875149     -4.1259692     -0.3296477
H      -1.7930534     -1.2654146      2.3072868
H      -1.5204739     -4.9208030     -1.0751615
C      -1.6371232     -3.3773287      1.9702677
C      -1.5506966     -4.4186978      1.0123149
H      -1.6038762     -3.6189196      3.0339107
H      -1.4541121     -5.4531063      1.3454706
H       3.2197053      2.3590271     -0.0976789
C       4.1080553     -0.4800433      1.2696506
C       3.7951945     -1.7694193      0.7939224
C       3.7533737     -0.2621977     -1.0131467
C       4.1440909      1.8444264      0.2063000
C       3.3870289     -1.6852068     -0.6200570
N       3.9659511      0.4196796      0.1382559
O       3.7851037      0.1994152     -2.1417154
O       4.4457496     -0.0317676      2.3645002
H       3.9202209     -2.6725730      1.3842268
H       4.9637511      2.1760976     -0.4476157
H       3.7831520     -2.4197167     -1.3331526
H       4.3799203      2.0925214      1.2482797
          85

O       0.9534469     -0.1879139     -2.4840356
C       1.4058442     -1.2667076     -2.1936126
O       1.7203397     -2.1894903     -3.0997611
C       1.6345479     -1.7814562     -4.4680671
C       2.0609222     -2.9459369     -5.3282625
C       1.7510326     -1.7235310     -0.8034897
N       1.2019531     -0.8899028      0.2013084
C       1.3543092     -1.3981486      1.3836067
C       1.1782149     -0.6594037      2.6419942
C       1.3857121      0.7235260      2.7215837
C       1.2072895      1.3884592      3.9324178
C       0.8424980      0.6801023      5.0783505
C       0.6693225     -0.7047315      5.0156043
C       0.8447389     -1.3691998      3.8049905
H       0.6025257     -1.4681301     -4.6815728
H       2.2853067     -0.9055988     -4.6011592
H       2.0224781     -2.6616217     -6.3872971
H       1.3960138     -3.8054731     -5.1740597
H       3.0868674     -3.2491424     -5.0849961
H       0.6170162      0.5619799     -0.0886901
H       1.4866393     -2.7901764     -0.6950853
H       1.4650712     -2.4862787      1.4987202
H       1.6916288      1.2632836      1.8241945
H       1.3621958      2.4675470      3.9852124
H       0.7056122      1.2049830      6.0255531
H       0.3998530     -1.2649164      5.9125599
H       0.7139583     -2.4527158      3.7492513
H      -3.2819677      4.2251619     -2.3905331
C      -2.7334887      3.2902164     -2.3341943
H      -4.0499634      1.6920368     -1.4977078
H       0.4071112      3.8971868     -3.4529917
C      -3.1113850      2.0562251     -1.9053129
H      -0.5445209      5.0782571     -2.5019555
C      -0.5978221      4.2808022     -3.2515385
N      -1.4149710      3.1886331     -2.7368354
H      -6.1371879     -0.1929767      2.2806207
H      -6.1797114      1.8560638      3.7142655
C      -5.2792568      0.4815126      2.2871331
C      -5.3061907      1.6422312      3.0968364
N      -2.0164465      1.2275591     -2.0611611
H      -1.0393833      4.6653266     -4.1778119
C      -1.0016573      1.9395133     -2.5572627
C      -4.1819727      0.1939734      1.5071474
C      -4.2304078      2.4993037      3.0908933
H      -1.9158827     -0.9059346     -3.6379664
H      -4.1806671     -0.7056411      0.8901998
H      -4.2395441      3.4062865      3.6996731
C      -1.9265355     -0.1364809     -1.6125010
C      -1.8758794     -1.1670586     -2.5799637
C      -3.0439432      1.0514884      1.4942982
C      -3.0878138      2.2335000      2.2909773
H      -0.0032382      1.5410854     -2.7287805
C      -1.8909526      0.7839483      0.6858882
C      -1.9890892      3.1381043      2.2416903
C      -1.8798780     -0.3727971     -0.2539127
C      -1.7571997     -2.4670931     -2.1657023
H      -2.0271398      4.0460578      2.8475290
H      -1.6986644     -3.2773775     -2.8945914
C      -0.9043012      2.8766320      1.4534563
C      -0.8313159      1.6886055      0.6659397
C      -1.7980184     -1.7342020      0.1864727
C      -1.7167572     -2.7812812     -0.7772250
O       0.2570902      1.5347134     -0.0915200
H      -0.0509994      3.5553494      1.4087997
C      -1.7540247     -2.0676373      1.5678224
C      -1.5886398     -4.1258255     -0.3306822
H      -1.7948507     -1.2652188      2.3062165
H      -1.5215571     -4.9206739     -1.0761747
C      -1.6368460     -3.3769896      1.9692029
C      -1.5498783     -4.4183323      1.0112568
H      -1.6026413     -3.6185323      3.0328287
H      -1.4515625     -5.4525693      1.3444328
H       3.2481572      2.3721233     -0.0888114
C       4.1174558     -0.4857544      1.2725275
C       3.8025499     -1.7711664      0.7899139
C       3.7517088     -0.2520867     -1.0075162
C       4.1649560      1.8445006      0.2214838
C       3.3898255     -1.6788254     -0.6226176
N       3.9729007      0.4211146      0.1464023
O       3.7743978      0.2176361     -2.1330984
O       4.4592141     -0.0438566      2.3690713
H       3.9246281     -2.6775198      1.3758403
H       4.9952534      2.1721288     -0.4235965
H       3.7896120     -2.4067310     -1.3412410
H       4.3952889      2.0836438      1.2672520
          85

O       0.9466574     -0.1943989     -2.4860081
C       1.4065542     -1.2697645     -2.1948196
O       1.7264186     -2.1917500     -3.1003767
C       1.6343113     -1.7865464     -4.4694842
C       2.0633800     -2.9511786     -5.3285542
C       1.7546813     -1.7240262     -0.8046882
N       1.2041541     -0.8909402      0.2002683
C       1.3533199     -1.3986191      1.3824203
C       1.1775262     -0.6583442      2.6398191
C       1.3892844      0.7240007      2.7178010
C       1.2120986      1.3907252      3.9278008
C       0.8439514      0.6846534      5.0741017
C       0.6663990     -0.6996746      5.0127853
C       0.8410145     -1.3660433      3.8031394
H       0.5985825     -1.4796269     -4.6798482
H       2.2798684     -0.9063642     -4.6076057
H       2.0156068     -2.6685512     -6.3891698
H       1.4050054     -3.8171496     -5.1666114
H       3.0958056     -3.2458409     -5.0909803
H       0.6144674      0.5621356     -0.0914778
H       1.4919263     -2.7914358     -0.6949990
H       1.4686429     -2.4861878      1.4983810
H       1.6975825      1.2615788      1.8198812
H       1.3705750      2.4693269      3.9797558
H       0.7079640      1.2109558      6.0206314
H       0.3943995     -1.2579804      5.9101448
H       0.7072858     -2.4492355      3.7484270
H      -3.2831616      4.2264124     -2.3909610
C      -2.7359544      3.2907084     -2.3348165
H      -4.0545131      1.6941892     -1.4983837
H       0.4055863      3.8937147     -3.4531981
C      -3.1154925      2.0571722     -1.9060439
H      -0.5451580      5.0760580     -2.5028851
C      -0.5990177      4.2784877     -3.2523003
N      -1.4176307      3.1873947     -2.7376544
H      -6.1395425     -0.1899774      2.2823953
H      -6.1799994      1.8595236      3.7154085
C      -5.2811982      0.4839888      2.2881824
C      -5.3069612      1.6449708      3.0975487
N      -2.0216680      1.2270816     -2.0622040
H      -1.0397342      4.6632779     -4.1788650
C      -1.0059799      1.9377085     -2.5583789
C      -4.1845298      0.1955123      1.5076496
C      -4.2306472      2.5013572      3.0907747
H      -1.9257162     -0.9066543     -3.6388286
H      -4.1840781     -0.7043300      0.8910106
H      -4.2388355      3.4085014      3.6993224
C      -1.9325680     -0.1369460     -1.6134647
C      -1.8837736     -1.1676207     -2.5808652
C      -3.0460109      1.0523448      1.4938680
C      -3.0886767      2.2345876      2.2902865
H      -0.0080393      1.5381801     -2.7302790
C      -1.8936144      0.7839110      0.6848297
C      -1.9893854      3.1384458      2.2403196
C      -1.8837595     -0.3729885     -0.2548865
C      -1.7639576     -2.4675534     -2.1666034
H      -2.0265165      4.0465367      2.8459969
H      -1.7066593     -3.2779772     -2.8954420
C      -0.9051673      2.8760509      1.4516306
C      -0.8334992      1.6878648      0.6643481
C      -1.8008798     -1.7342605      0.1855386
C      -1.7204628     -2.7814286     -0.7781906
O       0.2543946      1.5337490     -0.0940748
H      -0.0514032      3.5541295      1.4063156
C      -1.7551128     -2.0675210      1.5668811
C      -1.5902685     -4.1257867     -0.3316640
H      -1.7959278     -1.2650810      2.3052547
H      -1.5234753     -4.9206596     -1.0771510
C      -1.6363248     -3.3767391      1.9682038
C      -1.5492927     -4.4180716      1.0102408
H      -1.6009182     -3.6182490      3.0317995
H      -1.4493813     -5.4521533      1.3434159
H       3.2721292      2.3755884     -0.0713193
C       4.1278342     -0.4918054      1.2748745
C       3.8102214     -1.7734460      0.7840215
C       3.7505339     -0.2409303     -1.0020697
C       4.1836558      1.8441151      0.2378017
C       3.3919479     -1.6716564     -0.6263805
N       3.9826122      0.4235840      0.1552101
O       3.7649970      0.2370700     -2.1243454
O       4.4731235     -0.0569967      2.3733568
H       3.9276137     -2.6837061      1.3650973
H       5.0143164      2.1678867     -0.4045777
H       3.7904450     -2.3923444     -1.3515574
H       4.4126165      2.0800858      1.2836639
          85

O       0.9354808     -0.2012201     -2.4889251
C       1.4063107     -1.2724905     -2.1970613
O       1.7327345     -2.1930846     -3.1016308
C       1.6316957     -1.7922250     -4.4716544
C       2.0648705     -2.9565914     -5.3291235
C       1.7596796     -1.7235902     -0.8064833
N       1.2051198     -0.8913471      0.1984405
C       1.3503171     -1.3988013      1.3805549
C       1.1751212     -0.6569653      2.6370893
C       1.3919219      0.7247002      2.7133222
C       1.2171845      1.3934291      3.9225997
C       0.8461021      0.6899308      5.0695415
C       0.6634040     -0.6938345      5.0098122
C       0.8359971     -1.3623020      3.8010271
H       0.5932990     -1.4924597     -4.6786238
H       2.2710519     -0.9084015     -4.6149711
H       2.0186480     -2.6764398     -6.3891887
H       1.4084299     -3.8220727     -5.1680793
H       3.0953888     -3.2494424     -5.0897538
H       0.6112094      0.5627608     -0.0949953
H       1.4989099     -2.7913763     -0.6959225
H       1.4687723     -2.4859554      1.4973246
H       1.7023560      1.2598319      1.8146020
H       1.3798775      2.4714720      3.9735362
H       0.7119854      1.2177959      6.0154891
H       0.3892701     -1.2500662      5.9077949
H       0.6988273     -2.4451274      3.7475429
H      -3.2850755      4.2278858     -2.3908252
C      -2.7390376      3.2914621     -2.3352232
H      -4.0592487      1.6964122     -1.4985840
H       0.4031213      3.8906424     -3.4540015
C      -3.1199604      2.0582895     -1.9066074
H      -0.5460771      5.0740135     -2.5034598
C      -0.6009797      4.2767174     -3.2530909
N      -1.4210234      3.1865675     -2.7387122
H      -6.1420486     -0.1871581      2.2842592
H      -6.1804837      1.8627272      3.7167512
C      -5.2833134      0.4863134      2.2893471
C      -5.3079288      1.6475105      3.0984392
N      -2.0272672      1.2268398     -2.0635239
H      -1.0411408      4.6623328     -4.1795734
C      -1.0109266      1.9363094     -2.5600225
C      -4.1872730      0.1969929      1.5082246
C      -4.2311007      2.5032341      3.0908779
H      -1.9359785     -0.9072096     -3.6398645
H      -4.1876736     -0.7030266      0.8918290
H      -4.2383594      3.4105007      3.6992530
C      -1.9389911     -0.1372012     -1.6146560
C      -1.8922041     -1.1680365     -2.5819481
C      -3.0483161      1.0532060      1.4934879
C      -3.0897830      2.2356107      2.2897537
H      -0.0135992      1.5355551     -2.7324184
C      -1.8966493      0.7840550      0.6835833
C      -1.9900081      3.1388259      2.2390730
C      -1.8881078     -0.3729811     -0.2560862
C      -1.7713670     -2.4678763     -2.1677135
H      -2.0261980      4.0469480      2.8447560
H      -1.7153201     -3.2784323     -2.8965043
C      -0.9065176      2.8757370      1.4496482
C      -0.8362064      1.6875203      0.6623495
C      -1.8044003     -1.7341848      0.1843852
C      -1.7248649     -2.7814584     -0.7793551
O       0.2509989      1.5334230     -0.0972483
H      -0.0523237      3.5532122      1.4036180
C      -1.7569410     -2.0673538      1.5657082
C      -1.5927531     -4.1256656     -0.3328770
H      -1.7977554     -1.2649222      2.3040938
H      -1.5263746     -4.9205489     -1.0783883
C      -1.6364999     -3.3764493      1.9669577
C      -1.5495032     -4.4177816      1.0089754
H      -1.5998522     -3.6179204      3.0305224
H      -1.4480446     -5.4517234      1.3421169
H       3.2987233      2.3866033     -0.0673054
C       4.1348998     -0.5007665      1.2769843
C       3.8158329     -1.7776334      0.7789971
C       3.7474646     -0.2327012     -0.9966822
C       4.2013494      1.8413468      0.2534695
C       3.3924979     -1.6670154     -0.6298441
N       3.9874275      0.4225159      0.1631237
O       3.7545606      0.2536036     -2.1156068
O       4.4837941     -0.0728862      2.3772325
H       3.9288024     -2.6912637      1.3555313
H       5.0475630      2.1623621     -0.3750783
H       3.7986123     -2.3801942     -1.3611670
H       4.4188763      2.0667055      1.3051242
          85

O       0.9315990     -0.2066781     -2.4901720
C       1.4068771     -1.2744878     -2.1980133
O       1.7366636     -2.1939693     -3.1023861
C       1.6307560     -1.7972972     -4.4722641
C       2.0682102     -2.9604904     -5.3286832
C       1.7638570     -1.7235036     -0.8078001
N       1.2096448     -0.8919437      0.1978452
C       1.3499800     -1.3989827      1.3798397
C       1.1745826     -0.6555203      2.6353554
C       1.3957432      0.7255242      2.7097676
C       1.2221216      1.3964437      3.9179486
C       0.8475366      0.6956439      5.0654420
C       0.6604214     -0.6875949      5.0074767
C       0.8322038     -1.3583564      3.7998443
H       0.5920335     -1.5025467     -4.6772717
H       2.2651897     -0.9119797     -4.6183648
H       2.0110579     -2.6844266     -6.3900008
H       1.4212537     -3.8322392     -5.1588423
H       3.1041574     -3.2421425     -5.0959076
H       0.6098201      0.5636553     -0.0972295
H       1.5042855     -2.7921597     -0.6960040
H       1.4734548     -2.4855129      1.4974859
H       1.7089116      1.2581847      1.8104952
H       1.3884784      2.4739722      3.9676632
H       0.7142876      1.2251896      6.0105588
H       0.3837164     -1.2416674      5.9060126
H       0.6920992     -2.4408554      3.7477403
H      -3.2860458      4.2287010     -2.3918684
C      -2.7411307      3.2916258     -2.3362098
H      -4.0632133      1.6982277     -1.4993051
H       0.4017223      3.8873060     -3.4547633
C      -3.1235248      2.0589506     -1.9074325
H      -0.5467232      5.0718597     -2.5049363
C      -0.6020851      4.2743876     -3.2543406
N      -1.4232816      3.1851443     -2.7398444
H      -6.1439937     -0.1846513      2.2856039
H      -6.1809161      1.8658321      3.7172525
C      -5.2849388      0.4884117      2.2900695
C      -5.3086924      1.6499432      3.0987098
N      -2.0318219      1.2262514     -2.0644618
H      -1.0416109      4.6600848     -4.1810901
C      -1.0146362      1.9344002     -2.5610849
C      -4.1893283      0.1982215      1.5086350
C      -4.2314272      2.5050923      3.0904731
H      -1.9451700     -0.9080143     -3.6405257
H      -4.1903787     -0.7020777      0.8926297
H      -4.2379556      3.4125645      3.6985432
C      -1.9442417     -0.1377336     -1.6154543
C      -1.8995767     -1.1686830     -2.5826521
C      -3.0499967      1.0539082      1.4930718
C      -3.0905520      2.2365758      2.2890065
H      -0.0177072      1.5322540     -2.7329862
C      -1.8987599      0.7840183      0.6826695
C      -1.9903237      3.1391820      2.2377784
C      -1.8912316     -0.3732001     -0.2568846
C      -1.7781539     -2.4684651     -2.1683893
H      -2.0257802      4.0474585      2.8432557
H      -1.7235933     -3.2791857     -2.8971043
C      -0.9072537      2.8753166      1.4480469
C      -0.8379876      1.6869377      0.6610232
C      -1.8067627     -1.7342722      0.1836313
C      -1.7286768     -2.7817075     -0.7801234
O       0.2488832      1.5328127     -0.0994828
H      -0.0526900      3.5522779      1.4015700
C      -1.7574131     -2.0672575      1.5649500
C      -1.5951669     -4.1258011     -0.3336476
H      -1.7977883     -1.2647721      2.3033079
H      -1.5296549     -4.9207644     -1.0791466
C      -1.6358222     -3.3762542      1.9661407
C      -1.5495480     -4.4176685      1.0081537
H      -1.5977977     -3.6176686      3.0296712
H      -1.4469631     -5.4514928      1.3413064
H       3.3104023      2.3881796     -0.0368996
C       4.1471654     -0.5072869      1.2786542
C       3.8270972     -1.7804942      0.7715828
C       3.7473501     -0.2214852     -0.9915971
C       4.2140514      1.8417295      0.2709217
C       3.3970922     -1.6596459     -0.6340643
N       3.9971183      0.4246083      0.1717241
O       3.7452512      0.2736952     -2.1067889
O       4.4994774     -0.0868758      2.3810698
H       3.9347636     -2.6980198      1.3431665
H       5.0521594      2.1642205     -0.3639288
H       3.7945342     -2.3665028     -1.3717403
H       4.4413745      2.0618015      1.3208993
          85

O       0.9233180     -0.2122884     -2.4917045
C       1.4077045     -1.2766609     -2.1991553
O       1.7427231     -2.1951631     -3.1027473
C       1.6263500     -1.8023150     -4.4738468
C       2.0713718     -2.9646031     -5.3284834
C       1.7685252     -1.7229378     -0.8086318
N       1.2108184     -0.8922399      0.1970804
C       1.3482120     -1.3990393      1.3787755
C       1.1731788     -0.6537014      2.6331864
C       1.3991967      0.7266139      2.7054448
C       1.2273618      1.3998265      3.9125749
C       0.8494335      0.7019075      5.0607446
C       0.6572254     -0.6806640      5.0047164
C       0.8276139     -1.3538116      3.7982648
H       0.5805576     -1.5208812     -4.6745058
H       2.2500126     -0.9078838     -4.6272921
H       2.0001851     -2.6935758     -6.3908957
H       1.4360810     -3.8441549     -5.1478131
H       3.1139454     -3.2327121     -5.1041718
H       0.6071962      0.5645141     -0.1000818
H       1.5190721     -2.7909353     -0.6956525
H       1.4761862     -2.4849489      1.4972735
H       1.7148206      1.2565680      1.8053910
H       1.3977647      2.4767353      3.9609975
H       0.7176139      1.2331954      6.0050528
H       0.3779258     -1.2323682      5.9039006
H       0.6840345     -2.4358896      3.7476033
H      -3.2876900      4.2297554     -2.3925711
C      -2.7438436      3.2920532     -2.3370611
H      -4.0675435      1.7001862     -1.4997713
H       0.3994777      3.8841619     -3.4561928
C      -3.1275571      2.0598244     -1.9081632
H      -0.5475453      5.0697658     -2.5062818
C      -0.6038778      4.2723723     -3.2556939
N      -1.4262421      3.1840614     -2.7410925
H      -6.1460206     -0.1823527      2.2869818
H      -6.1814269      1.8685791      3.7179988
C      -5.2866730      0.4903348      2.2908490
C      -5.3095658      1.6521169      3.0991495
N      -2.0368408      1.2259054     -2.0655572
H      -1.0430806      4.6585683     -4.1823888
C      -1.0189951      1.9328683     -2.5624997
C      -4.1915338      0.1994076      1.5090085
C      -4.2319095      2.5067500      3.0902364
H      -1.9551095     -0.9086095     -3.6413476
H      -4.1932483     -0.7010979      0.8932973
H      -4.2377238      3.4143776      3.6980750
C      -1.9499731     -0.1380429     -1.6164255
C      -1.9075329     -1.1691340     -2.5835315
C      -3.0518688      1.0546206      1.4926274
C      -3.0915262      2.2374858      2.2883241
H      -0.0225800      1.5296171     -2.7346846
C      -1.9011531      0.7841275      0.6815927
C      -1.9909332      3.1395908      2.2364925
C      -1.8947918     -0.3732377     -0.2578867
C      -1.7855149     -2.4688616     -2.1692804
H      -2.0257056      4.0479573      2.8418684
H      -1.7326848     -3.2797601     -2.8979355
C      -0.9083885      2.8751184      1.4462735
C      -0.8401600      1.6866728      0.6593547
C      -1.8097138     -1.7342315      0.1826743
C      -1.7330900     -2.7818115     -0.7810902
O       0.2462266      1.5326634     -0.1021154
H      -0.0535107      3.5516283      1.3991714
C      -1.7585195     -2.0670701      1.5639705
C      -1.5983083     -4.1257886     -0.3346582
H      -1.7983857     -1.2645465      2.3023084
H      -1.5336824     -4.9208143     -1.0801609
C      -1.6359408     -3.3759935      1.9650912
C      -1.5504509     -4.4174598      1.0070871
H      -1.5966378     -3.6173866      3.0285837
H      -1.4468694     -5.4511833      1.3402174
H       3.3275245      2.3960705     -0.0235647
C       4.1554151     -0.5167988      1.2797003
C       3.8351232     -1.7851295      0.7641248
C       3.7452645     -0.2123818     -0.9864896
C       4.2262849      1.8397309      0.2880785
C       3.3979710     -1.6547365     -0.6396022
N       4.0020056      0.4237569      0.1793793
O       3.7358721      0.2916872     -2.0976600
O       4.5121248     -0.1033518      2.3839375
H       3.9411559     -2.7060196      1.3302493
H       5.0722861      2.1619155     -0.3386946
H       3.8121301     -2.3516539     -1.3865033
H       4.4489400      2.0515014      1.3412549
          85

O       0.9204465     -0.2137613     -2.4941738
C       1.4055100     -1.2777565     -2.2010534
O       1.7400737     -2.1969713     -3.1041613
C       1.6290881     -1.8040845     -4.4753708
C       2.0679875     -2.9688863     -5.3292938
C       1.7665917     -1.7232040     -0.8102643
N       1.2096677     -0.8916606      0.1952398
C       1.3450726     -1.3984155      1.3769950
C       1.1709929     -0.6520861      2.6309035
C       1.4003537      0.7277336      2.7025058
C       1.2306723      1.4018117      3.9094658
C       0.8512789      0.7052014      5.0579586
C       0.6552584     -0.6768985      5.0024120
C       0.8236888     -1.3509328      3.7961874
H       0.5857538     -1.5168126     -4.6779566
H       2.2579324     -0.9136238     -4.6276887
H       2.0011939     -2.6980040     -6.3914457
H       1.4269170     -3.8431443     -5.1503218
H       3.1070970     -3.2439930     -5.1031224
H       0.6050215      0.5650637     -0.1025444
H       1.5169214     -2.7910301     -0.6965950
H       1.4720199     -2.4843571      1.4959547
H       1.7169513      1.2565199      1.8020997
H       1.4039598      2.4783110      3.9575389
H       0.7212541      1.2371379      6.0021624
H       0.3746980     -1.2275662      5.9018399
H       0.6774515     -2.4326973      3.7459184
H      -3.2891343      4.2309719     -2.3924364
C      -2.7458942      3.2926970     -2.3372663
H      -4.0706540      1.7016373     -1.4998194
H       0.3974682      3.8826527     -3.4574640
C      -3.1304058      2.0606944     -1.9084924
H      -0.5479245      5.0685602     -2.5063164
C      -0.6054215      4.2716586     -3.2561696
N      -1.4284989      3.1838069     -2.7417405
H      -6.1475941     -0.1809672      2.2881836
H      -6.1817817      1.8699964      3.7191890
C      -5.2880510      0.4914741      2.2916591
C      -5.3102539      1.6532711      3.0999590
N      -2.0403550      1.2259935     -2.0664043
H      -1.0448094      4.6588037     -4.1823791
C      -1.0221320      1.9322802     -2.5635389
C      -4.1933410      0.2002208      1.5093278
C      -4.2323421      2.5075755      3.0905822
H      -1.9609278     -0.9086411     -3.6421635
H      -4.1955956     -0.7002939      0.8936265
H      -4.2376043      3.4152001      3.6984320
C      -1.9539000     -0.1379628     -1.6172750
C      -1.9125026     -1.1690957     -2.5843705
C      -3.0534513      1.0551233      1.4923943
C      -3.0924040      2.2379793      2.2881465
H      -0.0260117      1.5283773     -2.7360909
C      -1.9032234      0.7843608      0.6807124
C      -1.9915905      3.1397841      2.2358576
C      -1.8977032     -0.3730623     -0.2587478
C      -1.7901922     -2.4688073     -2.1701472
H      -2.0258011      4.0481012      2.8413423
H      -1.7380306     -3.2797488     -2.8987966
C      -0.9095591      2.8750901      1.4450262
C      -0.8420996      1.6867314      0.6579306
C      -1.8124084     -1.7340493      0.1817954
C      -1.7363362     -2.7816553     -0.7820044
O       0.2437694      1.5328858     -0.1043882
H      -0.0545189      3.5513608      1.3974678
C      -1.7604122     -2.0668986      1.5630685
C      -1.6006149     -4.1255779     -0.3356524
H      -1.8002194     -1.2644071      2.3014389
H      -1.5361893     -4.9205773     -1.0811987
C      -1.6371075     -3.3757861      1.9641017
C      -1.5516168     -4.4172166      1.0060528
H      -1.5972335     -3.6172107      3.0275682
H      -1.4472601     -5.4508840      1.3391284
H       3.3322244      2.3930632     -0.0130976
C       4.1583708     -0.5237031      1.2810524
C       3.8340808     -1.7897829      0.7620371
C       3.7433913     -0.2112961     -0.9835335
C       4.2309686      1.8357824      0.2961397
C       3.3957524     -1.6549370     -0.6410015
N       4.0067993      0.4205194      0.1834792
O       3.7288984      0.2967304     -2.0929147
O       4.5170579     -0.1140877      2.3861748
H       3.9378924     -2.7125067      1.3257010
H       5.0758657      2.1592207     -0.3306743
H       3.8126555     -2.3490771     -1.3909166
H       4.4549090      2.0453141      1.3494048
