          85

O       0.5390408      2.5902529      0.8890127
C       0.9753934      2.8325468     -0.2265169
O       1.1586900      4.1113854     -0.6495572
C       0.8889339      5.1413628      0.2942912
C       2.0589838      5.3406856      1.2392273
C       1.3812011      1.8918884     -1.2268446
N       1.2699585      0.5668212     -1.0468164
C       1.6735546     -0.2229551     -2.0089046
C       1.6405684     -1.6810360     -1.9569205
C       1.6203517     -2.4001881     -0.7504088
C       1.5074162     -3.7875816     -0.7510700
C       1.4498605     -4.4931935     -1.9549014
C       1.5247949     -3.7944177     -3.1629274
C       1.6243214     -2.4059732     -3.1619301
H       0.6974899      6.0423736     -0.3037849
H      -0.0230122      4.8887632      0.8537684
H       1.8287689      6.1290124      1.9704567
H       2.9575993      5.6378801      0.6790560
H       2.2741366      4.3998907      1.7627890
H       0.6049846      0.0758288      0.4482474
H       1.6650514      2.2942483     -2.2050921
H       1.9345778      0.2202525     -2.9823740
H       1.7050163     -1.8545779      0.1886031
H       1.4735347     -4.3238848      0.1996104
H       1.3619525     -5.5809253     -1.9526034
H       1.4986026     -4.3358819     -4.1107219
H       1.6626598     -1.8610607     -4.1086070
H      -3.6298619      0.1014883      4.5236576
C      -3.0757178      0.4793538      3.6702312
H      -4.2349555      0.1155041      1.7970846
H      -0.9429339      0.2836399      5.5239157
C      -3.3748372      0.4912173      2.3436495
H      -1.7039061      1.8959913      5.7339600
C      -1.1172320      1.2612938      5.0603816
N      -1.8383180      1.0798074      3.8066793
H      -5.5861002     -3.1488234     -1.2590840
H      -5.2444347     -5.2055590      0.1218160
C      -4.7075203     -3.2297738     -0.6167993
C      -4.5174215     -4.3935269      0.1671572
N      -2.3151142      1.1038586      1.7016537
H      -0.1580272      1.7414886      4.8428910
C      -1.3953659      1.4445973      2.6082471
C      -3.7952136     -2.1998199     -0.5784837
C      -3.4182913     -4.4885796      0.9881020
H      -2.5106869      3.3459612      0.2813245
H      -3.9555652     -1.3109613     -1.1906029
H      -3.2624333     -5.3747104      1.6076122
C      -2.1561311      1.2078638      0.2745910
C      -2.3015156      2.4736471     -0.3383310
C      -2.6373971     -2.2761401      0.2480884
C      -2.4643496     -3.4386219      1.0561000
H      -0.4358973      1.8997069      2.3534872
C      -1.6735675     -1.2186409      0.3138990
C      -1.3476290     -3.5063109      1.9366808
C      -1.8754991      0.0558621     -0.4314045
C      -2.1618072      2.5746036     -1.6970549
H      -1.2203446     -4.3948032      2.5589618
H      -2.2570162      3.5432489     -2.1908350
C      -0.4465141     -2.4804355      2.0014709
C      -0.5921098     -1.3243795      1.1806312
C      -1.7577917      0.1492378     -1.8560823
C      -1.8985175      1.4197958     -2.4871377
O       0.3347608     -0.3680611      1.3237293
H       0.4199301     -2.5210561      2.6639125
C      -1.4729183     -0.9891828     -2.6573107
C      -1.7590338      1.5098410     -3.8984015
H      -1.3252607     -1.9557945     -2.1721720
H      -1.8635436      2.4874544     -4.3733652
C      -1.3531685     -0.8724081     -4.0216635
C      -1.4960805      0.3890476     -4.6498999
H      -1.1267509     -1.7550521     -4.6218426
H      -1.3914911      0.4689209     -5.7330519
H       4.2341110     -0.2295893      2.7157143
C       4.2370709     -0.3714821     -0.5015181
C       4.3083310      0.7710090     -1.4390763
C       3.6150783      1.5216136      0.6330969
C       3.5834475     -0.6177563      1.9187779
C       3.9200347      1.8916862     -0.7834063
N       3.7520902      0.1445416      0.7062223
O       3.3498257      2.2347525      1.5764576
O       4.5659908     -1.5271779     -0.6637466
H       4.6671782      0.6601733     -2.4594757
H       3.8590177     -1.6553309      1.6931585
H       3.9421616      2.9290385     -1.1127127
H       2.5358670     -0.5747542      2.2463353
          85

O       0.5318174      2.5963078      0.8814688
C       0.9820245      2.8351700     -0.2284949
O       1.1808660      4.1115223     -0.6505430
C       0.9013851      5.1456266      0.2860147
C       2.0588220      5.3450801      1.2460973
C       1.3932291      1.8914116     -1.2250642
N       1.2734179      0.5662218     -1.0456449
C       1.6807666     -0.2230830     -2.0062599
C       1.6447688     -1.6813186     -1.9551222
C       1.6245166     -2.4005275     -0.7487700
C       1.5065935     -3.7875710     -0.7498296
C       1.4437762     -4.4922420     -1.9539117
C       1.5192836     -3.7934055     -3.1618743
C       1.6243465     -2.4053728     -3.1604524
H       0.7205754      6.0450704     -0.3176579
H      -0.0187561      4.8971837      0.8336961
H       1.8195073      6.1348207      1.9727879
H       2.9652780      5.6403337      0.6977731
H       2.2657152      4.4048415      1.7740505
H       0.6068757      0.0752664      0.4465312
H       1.6748163      2.2917166     -2.2028395
H       1.9461141      0.2200910     -2.9783932
H       1.7121372     -1.8552779      0.1902361
H       1.4725094     -4.3242764      0.2005998
H       1.3514332     -5.5796068     -1.9518909
H       1.4891764     -4.3344206     -4.1097885
H       1.6630660     -1.8601137     -4.1068989
H      -3.6314388      0.1024682      4.5239373
C      -3.0772333      0.4797541      3.6702916
H      -4.2371725      0.1164044      1.7974485
H      -0.9461472      0.2833846      5.5247834
C      -3.3766673      0.4915805      2.3437729
H      -1.7040462      1.8974647      5.7326949
C      -1.1183476      1.2608439      5.0600908
N      -1.8393615      1.0792634      3.8063523
H      -5.5855384     -3.1495823     -1.2571522
H      -5.2434016     -5.2057880      0.1244318
C      -4.7067721     -3.2302582     -0.6150876
C      -4.5163998     -4.3937167      0.1692351
N      -2.3166220      1.1032932      1.7014826
H      -0.1581262      1.7389028      4.8424072
C      -1.3963621      1.4434868      2.6077306
C      -3.7944865     -2.2002379     -0.5774397
C      -3.4169772     -4.4884254      0.9898319
H      -2.5160827      3.3448230      0.2812825
H      -3.9550704     -1.3116326     -1.1898789
H      -3.2608571     -5.3743334      1.6095948
C      -2.1579625      1.2073676      0.2744470
C      -2.3053397      2.4729334     -0.3384172
C      -2.6363900     -2.2761800      0.2487935
C      -2.4630361     -3.4384148      1.0571017
H      -0.4366749      1.8979177      2.3528739
C      -1.6725279     -1.2186061      0.3139567
C      -1.3459171     -3.5058059      1.9371985
C      -1.8753853      0.0557881     -0.4313618
C      -2.1655367      2.5742055     -1.6970806
H      -1.2183882     -4.3940673      2.5597598
H      -2.2626023      3.5426215     -2.1909610
C      -0.4446666     -2.4799953      2.0011558
C      -0.5904842     -1.3241144      1.1800475
C      -1.7572377      0.1494988     -1.8559524
C      -1.8997753      1.4198801     -2.4870189
O       0.3365173     -0.3678015      1.3225025
H       0.4220801     -2.5205169      2.6632072
C      -1.4706610     -0.9885071     -2.6571423
C      -1.7600449      1.5102289     -3.8982384
H      -1.3219600     -1.9549799     -2.1719983
H      -1.8659515      2.4876914     -4.3731903
C      -1.3508666     -0.8714540     -4.0214685
C      -1.4953820      0.3898388     -4.6497014
H      -1.1232991     -1.7537648     -4.6217029
H      -1.3907295      0.4698654     -5.7328330
H       4.2397317     -0.2340437      2.7158583
C       4.2385222     -0.3694800     -0.5014631
C       4.3020483      0.7741303     -1.4361355
C       3.6039436      1.5170641      0.6378850
C       3.5893487     -0.6245705      1.9197065
C       3.9044192      1.8925462     -0.7787695
N       3.7498659      0.1411202      0.7081791
O       3.3338210      2.2266364      1.5828043
O       4.5744718     -1.5236504     -0.6643711
H       4.6612024      0.6672025     -2.4569669
H       3.8706839     -1.6600390      1.6913668
H       3.9309807      2.9296993     -1.1004253
H       2.5423155     -0.5883765      2.2508270
          85

O       0.5261258      2.6010970      0.8737442
C       0.9904385      2.8369944     -0.2304332
O       1.2033196      4.1109025     -0.6512570
C       0.9119242      5.1492683      0.2771555
C       2.0566530      5.3524101      1.2513146
C       1.4087605      1.8891445     -1.2215384
N       1.2772954      0.5652555     -1.0443109
C       1.6902373     -0.2235176     -2.0032644
C       1.6500764     -1.6818038     -1.9533499
C       1.6298965     -2.4011049     -0.7472161
C       1.5068243     -3.7877656     -0.7489524
C       1.4382009     -4.4910979     -1.9534683
C       1.5135205     -3.7920252     -3.1613144
C       1.6244093     -2.4044803     -3.1591955
H       0.7392411      6.0461296     -0.3326203
H      -0.0153443      4.9029230      0.8134952
H       1.8064138      6.1425691      1.9737850
H       2.9694108      5.6487588      0.7142653
H       2.2584984      4.4131790      1.7831665
H       0.6084265      0.0743240      0.4449506
H       1.6940069      2.2881249     -2.2005414
H       1.9584252      0.2197848     -2.9743846
H       1.7206523     -1.8562444      0.1918233
H       1.4728265     -4.3251949      0.2010558
H       1.3413904     -5.5780866     -1.9519242
H       1.4787538     -4.3324299     -4.1094017
H       1.6630700     -1.8585055     -4.1052144
H      -3.6335123      0.1028604      4.5242566
C      -3.0792900      0.4797614      3.6704488
H      -4.2397783      0.1168750      1.7978149
H      -0.9501660      0.2829564      5.5259237
C      -3.3789859      0.4916210      2.3439823
H      -1.7050847      1.8987232      5.7316871
C      -1.1202608      1.2602327      5.0600936
N      -1.8410731      1.0785651      3.8062405
H      -5.5855841     -3.1508885     -1.2555278
H      -5.2427038     -5.2067153      0.1264666
C      -4.7066634     -3.2312214     -0.6136296
C      -4.5158738     -4.3944701      0.1709030
N      -2.3187111      1.1026738      1.7015148
H      -0.1590211      1.7362040      4.8423287
C      -1.3980363      1.4424150      2.6074706
C      -3.7945828     -2.2009618     -0.5764557
C      -3.4162002     -4.4887160      0.9912169
H      -2.5208816      3.3438536      0.2817128
H      -3.9555166     -1.3125688     -1.1891336
H      -3.2596747     -5.3744462      1.6111336
C      -2.1601471      1.2068882      0.2745548
C      -2.3087121      2.4724008     -0.3381009
C      -2.6362056     -2.2764044      0.2494746
C      -2.4624579     -3.4384823      1.0579454
H      -0.4381272      1.8962728      2.3526215
C      -1.6723410     -1.2186995      0.3141202
C      -1.3449799     -3.5055651      1.9376014
C      -1.8759153      0.0556853     -0.4311169
C      -2.1683250      2.5741526     -1.6966412
H      -1.2171897     -4.3936383      2.5603811
H      -2.2666955      3.5424542     -2.1904969
C      -0.4436263     -2.4798035      2.0008120
C      -0.5895966     -1.3240400      1.1794874
C      -1.7570238      0.1499029     -1.8555622
C      -1.9005061      1.4202839     -2.4864935
O       0.3375811     -0.3678176      1.3214242
H       0.4234061     -2.5202224      2.6624928
C      -1.4695672     -0.9878054     -2.6568526
C      -1.7605628      1.5109864     -3.8976809
H      -1.3204135     -1.9542854     -2.1718187
H      -1.8671732      2.4884309     -4.3725086
C      -1.3499805     -0.8704381     -4.0211595
C      -1.4952808      0.3908604     -4.6492632
H      -1.1220840     -1.7525305     -4.6215925
H      -1.3907512      0.4710426     -5.7323929
H       4.2496194     -0.2353094      2.7143315
C       4.2381161     -0.3673834     -0.5026415
C       4.2885753      0.7758870     -1.4359542
C       3.5912708      1.5131345      0.6412223
C       3.5987169     -0.6297389      1.9204553
C       3.8821385      1.8912834     -0.7762389
N       3.7477980      0.1384093      0.7091635
O       3.3179780      2.2193713      1.5881263
O       4.5835992     -1.5190390     -0.6651321
H       4.6514379      0.6746550     -2.4557952
H       3.8868227     -1.6628207      1.6897071
H       3.9075207      2.9311228     -1.0957126
H       2.5528959     -0.6016326      2.2567794
          85

O       0.5230316      2.6011852      0.8664362
C       0.9983591      2.8380171     -0.2317284
O       1.2157986      4.1096448     -0.6523109
C       0.9158629      5.1502592      0.2717973
C       2.0542120      5.3568213      1.2525219
C       1.4321137      1.8873904     -1.2177286
N       1.2803635      0.5635693     -1.0421359
C       1.6958239     -0.2237098     -2.0005010
C       1.6517079     -1.6824147     -1.9523896
C       1.6321164     -2.4012960     -0.7463610
C       1.5073167     -3.7878547     -0.7485616
C       1.4360964     -4.4900852     -1.9534989
C       1.5100954     -3.7909021     -3.1613581
C       1.6230052     -2.4035516     -3.1586936
H       0.7455984      6.0450931     -0.3414780
H      -0.0145594      4.9028936      0.8020840
H       1.7970707      6.1459174      1.9737071
H       2.9690995      5.6563028      0.7208784
H       2.2560541      4.4181142      1.7854170
H       0.6094196      0.0734545      0.4440524
H       1.7007417      2.2842982     -2.1995792
H       1.9672070      0.2197630     -2.9704595
H       1.7248700     -1.8563695      0.1925101
H       1.4741141     -4.3259637      0.2010459
H       1.3381615     -5.5769684     -1.9523335
H       1.4730772     -4.3309982     -4.1094914
H       1.6613287     -1.8569004     -4.1043125
H      -3.6350624      0.1027123      4.5244532
C      -3.0808272      0.4794896      3.6705973
H      -4.2415783      0.1169839      1.7980298
H      -0.9532909      0.2824921      5.5269303
C      -3.3806456      0.4914650      2.3441596
H      -1.7062126      1.8994120      5.7311649
C      -1.1218871      1.2596568      5.0603456
N      -1.8424585      1.0779216      3.8063328
H      -5.5860053     -3.1520942     -1.2547039
H      -5.2424884     -5.2076631      0.1275211
C      -4.7069809     -3.2321485     -0.6129135
C      -4.5158307     -4.3952530      0.1717388
N      -2.3202629      1.1022314      1.7016329
H      -0.1599283      1.7341975      4.8426424
C      -1.3994204      1.4416305      2.6075343
C      -3.7951293     -2.2016532     -0.5759980
C      -3.4159964     -4.4891373      0.9918810
H      -2.5241710      3.3432388      0.2819966
H      -3.9564179     -1.3133848     -1.1887793
H      -3.2591508     -5.3747486      1.6118841
C      -2.1619095      1.2065284      0.2747073
C      -2.3110193      2.4720307     -0.3378376
C      -2.6365883     -2.2767133      0.2497598
C      -2.4624733     -3.4386853      1.0583002
H      -0.4393297      1.8950821      2.3534208
C      -1.6728352     -1.2188328      0.3142110
C      -1.3447873     -3.5054729      1.9377200
C      -1.8769123      0.0555143     -0.4309337
C      -2.1701512      2.5741438     -1.6963107
H      -1.2167517     -4.3934402      2.5605981
H      -2.2692805      3.5423933     -2.1901189
C      -0.4435250     -2.4796187      2.0006077
C      -0.5896780     -1.3238956      1.1792138
C      -1.7576087      0.1500602     -1.8552758
C      -1.9011073      1.4205362     -2.4861030
O       0.3374337     -0.3676117      1.3209837
H       0.4236297     -2.5198480      2.6621370
C      -1.4701853     -0.9875774     -2.6567055
C      -1.7608448      1.5114865     -3.8972856
H      -1.3214793     -1.9542092     -2.1718375
H      -1.8675058      2.4889769     -4.3719949
C      -1.3504841     -0.8699459     -4.0209637
C      -1.4955764      0.3914664     -4.6489618
H      -1.1228724     -1.7519834     -4.6215888
H      -1.3909608      0.4717286     -5.7320647
H       4.2595908     -0.2353663      2.7111062
C       4.2340317     -0.3653835     -0.5075306
C       4.2677573      0.7740833     -1.4400350
C       3.5768897      1.5096073      0.6419158
C       3.6068365     -0.6324900      1.9199942
C       3.8455637      1.8890198     -0.7798544
N       3.7441519      0.1374153      0.7087975
O       3.3061021      2.2151377      1.5907896
O       4.5882703     -1.5160221     -0.6662205
H       4.6307731      0.6770427     -2.4602366
H       3.8997166     -1.6636000      1.6863914
H       3.8876454      2.9290144     -1.0901048
H       2.5627179     -0.6107434      2.2624495
          85

O       0.5221168      2.6004864      0.8578864
C       1.0103858      2.8392182     -0.2330619
O       1.2286721      4.1093098     -0.6533743
C       0.9194143      5.1512917      0.2670087
C       2.0519563      5.3615909      1.2534256
C       1.4638351      1.8853432     -1.2099851
N       1.2876362      0.5633559     -1.0389552
C       1.7042598     -0.2232273     -1.9970836
C       1.6535624     -1.6821264     -1.9510097
C       1.6341852     -2.4007463     -0.7451750
C       1.5079376     -3.7872435     -0.7480169
C       1.4346825     -4.4882120     -1.9534864
C       1.5068857     -3.7887222     -3.1612888
C       1.6213702     -2.4015436     -3.1578831
H       0.7503587      6.0442226     -0.3491911
H      -0.0134950      4.9016386      0.7916339
H       1.7881239      6.1488142      1.9741558
H       2.9681399      5.6652411      0.7264931
H       2.2550495      4.4231454      1.7864762
H       0.6105470      0.0734194      0.4437254
H       1.7252157      2.2807944     -2.1969977
H       1.9788986      0.2201035     -2.9659357
H       1.7290793     -1.8559142      0.1935904
H       1.4756330     -4.3261942      0.2011075
H       1.3362864     -5.5750656     -1.9528747
H       1.4677800     -4.3284557     -4.1095135
H       1.6593368     -1.8540225     -4.1029907
H      -3.6366896      0.1024420      4.5245868
C      -3.0824488      0.4791497      3.6707009
H      -4.2433662      0.1169616      1.7981541
H      -0.9569936      0.2821764      5.5282255
C      -3.3823461      0.4912357      2.3442892
H      -1.7077802      1.9003401      5.7305859
C      -1.1238765      1.2591884      5.0607416
N      -1.8439718      1.0773124      3.8064359
H      -5.5865102     -3.1535135     -1.2538723
H      -5.2422819     -5.2087057      0.1287454
C      -4.7073711     -3.2332146     -0.6121962
C      -4.5158134     -4.3961114      0.1726657
N      -2.3218801      1.1018004      1.7017532
H      -0.1611085      1.7321745      4.8432601
C      -1.4009005      1.4409481      2.6076011
C      -3.7957806     -2.2024554     -0.5756156
C      -3.4157980     -4.4895585      0.9926185
H      -2.5276562      3.3426220      0.2822582
H      -3.9574521     -1.3143445     -1.1885426
H      -3.2586076     -5.3750112      1.6127591
C      -2.1637352      1.2062044      0.2748674
C      -2.3134318      2.4716664     -0.3375638
C      -2.6370754     -2.2770432      0.2499840
C      -2.4625135     -3.4388528      1.0586488
H      -0.4406394      1.8941256      2.3541458
C      -1.6735213     -1.2189198      0.3142588
C      -1.3445741     -3.5052130      1.9377909
C      -1.8780344      0.0553697     -0.4307735
C      -2.1721573      2.5741293     -1.6959930
H      -1.2161871     -4.3930556      2.5607741
H      -2.2721634      3.5423104     -2.1897545
C      -0.4434742     -2.4791769      2.0003421
C      -0.5899529     -1.3235115      1.1788738
C      -1.7582449      0.1502422     -1.8549779
C      -1.9017024      1.4208412     -2.4857000
O       0.3367964     -0.3668513      1.3206152
H       0.4238343     -2.5191719      2.6616790
C      -1.4712347     -0.9874123     -2.6566003
C      -1.7611887      1.5120135     -3.8969088
H      -1.3231914     -1.9542401     -2.1719281
H      -1.8678265      2.4895582     -4.3714974
C      -1.3515193     -0.8695163     -4.0208050
C      -1.4961528      0.3920644     -4.6486840
H      -1.1244631     -1.7515411     -4.6216609
H      -1.3914982      0.4723880     -5.7317701
H       4.2689243     -0.2373372      2.7091142
C       4.2326619     -0.3631510     -0.5106462
C       4.2514146      0.7729218     -1.4421665
C       3.5657382      1.5067380      0.6439833
C       3.6146210     -0.6353387      1.9196726
C       3.8144338      1.8856256     -0.7813979
N       3.7432772      0.1368009      0.7094413
O       3.2971370      2.2115623      1.5948411
O       4.5943244     -1.5126999     -0.6659908
H       4.6195985      0.6817344     -2.4608221
H       3.9107036     -1.6647908      1.6828350
H       3.8675402      2.9290398     -1.0864882
H       2.5719534     -0.6185593      2.2670909
          85

O       0.5222631      2.5988684      0.8496422
C       1.0235694      2.8411382     -0.2331483
O       1.2381668      4.1093306     -0.6543886
C       0.9210641      5.1521017      0.2634951
C       2.0502701      5.3646666      1.2529888
C       1.5044579      1.8850410     -1.2017703
N       1.2974460      0.5629291     -1.0342366
C       1.7107879     -0.2222008     -1.9931688
C       1.6530678     -1.6815065     -1.9496649
C       1.6337463     -2.3996038     -0.7440067
C       1.5081931     -3.7862431     -0.7474543
C       1.4353705     -4.4861574     -1.9534668
C       1.5048635     -3.7863128     -3.1612342
C       1.6183456     -2.3990413     -3.1571123
H       0.7520090      6.0434952     -0.3546731
H      -0.0132084      4.8996099      0.7841142
H       1.7822834      6.1500432      1.9741185
H       2.9666673      5.6717261      0.7284959
H       2.2551981      4.4262018      1.7854941
H       0.6126895      0.0733294      0.4440050
H       1.7371321      2.2786055     -2.1938129
H       1.9905709      0.2209274     -2.9605398
H       1.7303877     -1.8547838      0.1945731
H       1.4771752     -4.3259542      0.2012300
H       1.3389761     -5.5732138     -1.9534171
H       1.4653503     -4.3258254     -4.1095207
H       1.6558501     -1.8506903     -4.1017321
H      -3.6382342      0.1021483      4.5246741
C      -3.0839150      0.4787838      3.6708048
H      -4.2448500      0.1169022      1.7981954
H      -0.9607452      0.2818705      5.5297551
C      -3.3837819      0.4909704      2.3443997
H      -1.7096323      1.9012062      5.7301484
C      -1.1259393      1.2587373      5.0613708
N      -1.8453534      1.0766750      3.8066517
H      -5.5870631     -3.1548867     -1.2532504
H      -5.2422480     -5.2096675      0.1298395
C      -4.7078295     -3.2342565     -0.6116648
C      -4.5159300     -4.3969231      0.1734493
N      -2.3231872      1.1013394      1.7019174
H      -0.1623755      1.7302957      4.8442967
C      -1.4021768      1.4402128      2.6078321
C      -3.7964717     -2.2032578     -0.5754114
C      -3.4157493     -4.4899547      0.9932295
H      -2.5308130      3.3420408      0.2824780
H      -3.9585274     -1.3153098     -1.1884867
H      -3.2582547     -5.3752316      1.6135399
C      -2.1653215      1.2058739      0.2750584
C      -2.3156426      2.4712737     -0.3373023
C      -2.6376335     -2.2773887      0.2500640
C      -2.4626712     -3.4390271      1.0588593
H      -0.4417249      1.8930530      2.3553973
C      -1.6742872     -1.2190043      0.3142635
C      -1.3445100     -3.5049714      1.9377643
C      -1.8792046      0.0551776     -0.4306561
C      -2.1742378      2.5739954     -1.6957473
H      -1.2157873     -4.3927175      2.5608127
H      -2.2751579      3.5420851     -2.1894927
C      -0.4436314     -2.4787180      2.0000918
C      -0.5904305     -1.3230423      1.1786456
C      -1.7592202      0.1502632     -1.8547584
C      -1.9025821      1.4209851     -2.4854035
O       0.3358630     -0.3659486      1.3207155
H       0.4238277     -2.5184704      2.6612367
C      -1.4729384     -0.9874918     -2.6565954
C      -1.7616019      1.5123587     -3.8966395
H      -1.3260280     -1.9545848     -2.1721413
H      -1.8680614      2.4899599     -4.3711343
C      -1.3527968     -0.8693104     -4.0207171
C      -1.4965456      0.3925033     -4.6484677
H      -1.1263808     -1.7513546     -4.6217860
H      -1.3914571      0.4729221     -5.7314925
H       4.2761358     -0.2387460      2.7080133
C       4.2343373     -0.3604929     -0.5149447
C       4.2445324      0.7715398     -1.4426951
C       3.5577729      1.5041158      0.6464808
C       3.6209605     -0.6370393      1.9191879
C       3.7840689      1.8844304     -0.7827793
N       3.7433855      0.1374757      0.7100319
O       3.2908207      2.2091963      1.5983264
O       4.5982387     -1.5115352     -0.6653404
H       4.6152146      0.6855700     -2.4608741
H       3.9196794     -1.6651157      1.6793717
H       3.8662744      2.9278097     -1.0746394
H       2.5790680     -0.6244332      2.2706549
          85

O       0.5215873      2.5970640      0.8410385
C       1.0396313      2.8421781     -0.2321031
O       1.2447250      4.1095399     -0.6562526
C       0.9205031      5.1516753      0.2606243
C       2.0491722      5.3646484      1.2504623
C       1.5483797      1.8843363     -1.1860798
N       1.3118586      0.5650729     -1.0265749
C       1.7143705     -0.2201873     -1.9893972
C       1.6477772     -1.6800565     -1.9491257
C       1.6302669     -2.3982648     -0.7437775
C       1.5083107     -3.7853426     -0.7470529
C       1.4376106     -4.4851532     -1.9530813
C       1.5045028     -3.7850578     -3.1609185
C       1.6135773     -2.3973131     -3.1567487
H       0.7501031      6.0423467     -0.3580145
H      -0.0139997      4.8957494      0.7789926
H       1.7811353      6.1483404      1.9733172
H       2.9647228      5.6734228      0.7255315
H       2.2558836      4.4255082      1.7811828
H       0.6153342      0.0743331      0.4450538
H       1.7773278      2.2763886     -2.1841836
H       1.9974628      0.2230169     -2.9555387
H       1.7284316     -1.8532942      0.1945448
H       1.4798339     -4.3252417      0.2015748
H       1.3454381     -5.5725779     -1.9531481
H       1.4672679     -4.3248063     -4.1091452
H       1.6509006     -1.8489984     -4.1013945
H      -3.6400361      0.1017420      4.5247743
C      -3.0854664      0.4782825      3.6710235
H      -4.2461403      0.1168323      1.7981781
H      -0.9648116      0.2816413      5.5318392
C      -3.3850830      0.4906409      2.3445773
H      -1.7118619      1.9021208      5.7299695
C      -1.1282884      1.2582805      5.0624178
N      -1.8468075      1.0758839      3.8071671
H      -5.5877053     -3.1562720     -1.2528351
H      -5.2424706     -5.2105424      0.1309574
C      -4.7083978     -3.2353278     -0.6113140
C      -4.5162385     -4.3977002      0.1741680
N      -2.3242673      1.1007987      1.7022594
H      -0.1639268      1.7284183      4.8458360
C      -1.4032930      1.4393413      2.6083815
C      -3.7972072     -2.2041670     -0.5753881
C      -3.4158967     -4.4903603      0.9937966
H      -2.5334340      3.3414363      0.2825542
H      -3.9595653     -1.3163887     -1.1886289
H      -3.2582241     -5.3754439      1.6143365
C      -2.1669056      1.2054662      0.2753054
C      -2.3178320      2.4707198     -0.3371289
C      -2.6382768     -2.2778638      0.2500316
C      -2.4629122     -3.4392915      1.0589796
H      -0.4425414      1.8917967      2.3567111
C      -1.6752530     -1.2191370      0.3141570
C      -1.3444860     -3.5046430      1.9376308
C      -1.8808383      0.0548486     -0.4306125
C      -2.1767190      2.5735612     -1.6956457
H      -1.2153274     -4.3922101      2.5608471
H      -2.2782796      3.5416210     -2.1893041
C      -0.4438992     -2.4780865      1.9996784
C      -0.5910048     -1.3224179      1.1781843
C      -1.7610395      0.1500050     -1.8546728
C      -1.9041296      1.4208404     -2.4853130
O       0.3348719     -0.3649752      1.3206818
H       0.4236446     -2.5175221      2.6607303
C      -1.4755421     -0.9878587     -2.6567476
C      -1.7621488      1.5124534     -3.8965252
H      -1.3300437     -1.9552539     -2.1725367
H      -1.8682040      2.4901478     -4.3709045
C      -1.3540728     -0.8692987     -4.0206778
C      -1.4964540      0.3927685     -4.6482960
H      -1.1278215     -1.7513262     -4.6218313
H      -1.3901514      0.4733824     -5.7311829
H       4.2861170     -0.2351701      2.7025350
C       4.2337589     -0.3577475     -0.5180980
C       4.2415341      0.7724198     -1.4431552
C       3.5517364      1.5033971      0.6480451
C       3.6285428     -0.6369860      1.9174062
C       3.7725853      1.8829254     -0.7825231
N       3.7394778      0.1381939      0.7082690
O       3.2822968      2.2076046      1.6007110
O       4.5998265     -1.5091637     -0.6647801
H       4.6199561      0.6921611     -2.4587446
H       3.9317591     -1.6632009      1.6753268
H       3.8650075      2.9302418     -1.0695596
H       2.5888691     -0.6305325      2.2778198
          85

O       0.5190633      2.5974300      0.8367006
C       1.0521695      2.8434160     -0.2285766
O       1.2446590      4.1090562     -0.6572692
C       0.9186611      5.1517048      0.2599118
C       2.0491764      5.3627516      1.2480629
C       1.6004540      1.8844986     -1.1710564
N       1.3160364      0.5665006     -1.0223960
C       1.7106367     -0.2189928     -1.9869555
C       1.6429189     -1.6805395     -1.9497008
C       1.6282359     -2.3980323     -0.7442124
C       1.5087984     -3.7855062     -0.7467450
C       1.4384805     -4.4852673     -1.9526261
C       1.5051621     -3.7858745     -3.1609391
C       1.6117579     -2.3977857     -3.1573433
H       0.7481075      6.0419924     -0.3589143
H      -0.0155087      4.8950284      0.7782278
H       1.7830759      6.1457818      1.9722196
H       2.9638350      5.6715466      0.7216375
H       2.2566424      4.4231827      1.7777642
H       0.6165106      0.0749677      0.4443579
H       1.7962234      2.2772813     -2.1745430
H       2.0011836      0.2239569     -2.9511661
H       1.7270864     -1.8521232      0.1934834
H       1.4820927     -4.3253110      0.2019335
H       1.3477673     -5.5728273     -1.9523798
H       1.4696809     -4.3263489     -4.1087615
H       1.6493707     -1.8498374     -4.1021912
H      -3.6411433      0.1013639      4.5247727
C      -3.0863458      0.4779306      3.6711793
H      -4.2466583      0.1168091      1.7980631
H      -0.9667261      0.2816149      5.5330407
C      -3.3856588      0.4904522      2.3446659
H      -1.7129099      1.9026556      5.7300032
C      -1.1294699      1.2580907      5.0630513
N      -1.8476894      1.0754140      3.8076391
H      -5.5880758     -3.1568881     -1.2527219
H      -5.2427579     -5.2109008      0.1314711
C      -4.7087421     -3.2358385     -0.6112250
C      -4.5165172     -4.3980571      0.1744689
N      -2.3246847      1.1005302      1.7024966
H      -0.1647550      1.7275315      4.8465367
C      -1.4039195      1.4388314      2.6089758
C      -3.7975685     -2.2046664     -0.5754607
C      -3.4160876     -4.4906075      0.9940269
H      -2.5345778      3.3411134      0.2824783
H      -3.9600470     -1.3169741     -1.1887862
H      -3.2583928     -5.3756122      1.6146741
C      -2.1677527      1.2051800      0.2754156
C      -2.3190025      2.4703355     -0.3371401
C      -2.6386278     -2.2782061      0.2499809
C      -2.4630964     -3.4395142      1.0590180
H      -0.4428724      1.8908814      2.3586651
C      -1.6757807     -1.2193134      0.3141028
C      -1.3444995     -3.5045083      1.9375553
C      -1.8819909      0.0545247     -0.4306096
C      -2.1781146      2.5732786     -1.6957106
H      -1.2150966     -4.3920040      2.5608256
H      -2.2797855      3.5413488     -2.1893069
C      -0.4440390     -2.4777877      1.9995235
C      -0.5912635     -1.3219705      1.1780674
C      -1.7626047      0.1497248     -1.8546595
C      -1.9052293      1.4206465     -2.4853517
O       0.3343434     -0.3643928      1.3203515
H       0.4235525     -2.5171155      2.6605258
C      -1.4771206     -0.9881269     -2.6568243
C      -1.7624632      1.5124154     -3.8965660
H      -1.3323614     -1.9556876     -2.1727565
H      -1.8682819      2.4901551     -4.3708913
C      -1.3544589     -0.8692877     -4.0206102
C      -1.4962285      0.3928677     -4.6482756
H      -1.1280621     -1.7512789     -4.6217697
H      -1.3890958      0.4735317     -5.7310645
H       4.2951391     -0.2311671      2.6964537
C       4.2316563     -0.3543803     -0.5232575
C       4.2388335      0.7693709     -1.4463304
C       3.5490934      1.5034884      0.6497652
C       3.6339557     -0.6356489      1.9156227
C       3.7628393      1.8842963     -0.7832967
N       3.7330835      0.1404975      0.7064171
O       3.2750895      2.2077979      1.6019996
O       4.6010182     -1.5071259     -0.6638880
H       4.6148457      0.6905896     -2.4627134
H       3.9400974     -1.6602756      1.6707964
H       3.8790827      2.9313323     -1.0591983
H       2.5970485     -0.6337101      2.2811983
          85

O       0.5125933      2.5951933      0.8326253
C       1.0452472      2.8427358     -0.2315279
O       1.2395024      4.1072898     -0.6589438
C       0.9163252      5.1506486      0.2593896
C       2.0485391      5.3598274      1.2459490
C       1.5972188      1.8818500     -1.1743041
N       1.3040012      0.5633917     -1.0252056
C       1.7035393     -0.2205530     -1.9884630
C       1.6399277     -1.6826886     -1.9509789
C       1.6266845     -2.3990018     -0.7450042
C       1.5085266     -3.7865973     -0.7467385
C       1.4385808     -4.4868403     -1.9523393
C       1.5051036     -3.7883263     -3.1611436
C       1.6104075     -2.4001078     -3.1582664
H       0.7462035      6.0409991     -0.3593375
H      -0.0175474      4.8949129      0.7786000
H       1.7836651      6.1425731      1.9708347
H       2.9626419      5.6685277      0.7185465
H       2.2563093      4.4198984      1.7748578
H       0.6145303      0.0738133      0.4413108
H       1.7752337      2.2742837     -2.1816114
H       1.9918864      0.2223713     -2.9532512
H       1.7249351     -1.8522125      0.1922243
H       1.4822354     -4.3260148      0.2021481
H       1.3484026     -5.5744514     -1.9514789
H       1.4703630     -4.3294652     -4.1085868
H       1.6477670     -1.8525177     -4.1033249
H      -3.6420812      0.1010388      4.5246593
C      -3.0870994      0.4776047      3.6711875
H      -4.2471943      0.1167895      1.7978956
H      -0.9683472      0.2815682      5.5339452
C      -3.3862147      0.4902899      2.3446270
H      -1.7136889      1.9031427      5.7297940
C      -1.1304093      1.2578747      5.0633835
N      -1.8484113      1.0748915      3.8078638
H      -5.5883499     -3.1573635     -1.2527560
H      -5.2430767     -5.2111069      0.1318235
C      -4.7090155     -3.2362175     -0.6112484
C      -4.5167992     -4.3982885      0.1746504
N      -2.3251182      1.1002498      1.7025356
H      -0.1653720      1.7266557      4.8468786
C      -1.4044725      1.4382197      2.6092972
C      -3.7978645     -2.2050485     -0.5756018
C      -3.4163368     -4.4907712      0.9941796
H      -2.5359528      3.3407468      0.2821511
H      -3.9603871     -1.3174213     -1.1889936
H      -3.2586721     -5.3756978      1.6149460
C      -2.1686915      1.2048365      0.2753098
C      -2.3203131      2.4699327     -0.3374120
C      -2.6389559     -2.2785124      0.2498660
C      -2.4633064     -3.4397324      1.0589858
H      -0.4432861      1.8899531      2.3599224
C      -1.6762861     -1.2195599      0.3139263
C      -1.3446280     -3.5046544      1.9374388
C      -1.8831079      0.0541937     -0.4307671
C      -2.1793141      2.5729197     -1.6959683
H      -1.2151365     -4.3921432      2.5607038
H      -2.2810236      3.5409982     -2.1895514
C      -0.4442249     -2.4778844      1.9993087
C      -0.5916518     -1.3220413      1.1778696
C      -1.7641520      0.1493420     -1.8548997
C      -1.9063526      1.4202584     -2.4856203
O       0.3339154     -0.3645196      1.3191430
H       0.4234774     -2.5171463      2.6601720
C      -1.4784584     -0.9884641     -2.6570201
C      -1.7629611      1.5121155     -3.8967814
H      -1.3341178     -1.9560914     -2.1729743
H      -1.8685607      2.4898818     -4.3710986
C      -1.3549784     -0.8695571     -4.0207426
C      -1.4963794      0.3926152     -4.6484526
H      -1.1283735     -1.7515441     -4.6218339
H      -1.3887297      0.4733202     -5.7311841
H       4.2966926     -0.2299835      2.6921570
C       4.2223926     -0.3538582     -0.5300316
C       4.2131967      0.7653167     -1.4536922
C       3.5340221      1.5006822      0.6464418
C       3.6339153     -0.6358482      1.9133575
C       3.7224181      1.8801150     -0.7912878
N       3.7263479      0.1401882      0.7037356
O       3.2668279      2.2066862      1.5996677
O       4.5983097     -1.5056671     -0.6669541
H       4.5890945      0.6900025     -2.4703179
H       3.9417176     -1.6597117      1.6673268
H       3.8527993      2.9273037     -1.0619069
H       2.5982300     -0.6363997      2.2825352
          85

O       0.5058846      2.5930394      0.8291598
C       1.0368350      2.8419153     -0.2346072
O       1.2340034      4.1054508     -0.6604668
C       0.9141740      5.1494781      0.2590869
C       2.0481564      5.3567618      1.2439804
C       1.5896636      1.8791405     -1.1787089
N       1.2907556      0.5600320     -1.0285943
C       1.6962522     -0.2222479     -1.9903388
C       1.6373033     -1.6848681     -1.9523330
C       1.6253372     -2.3999818     -0.7458201
C       1.5081773     -3.7876598     -0.7466904
C       1.4383974     -4.4884794     -1.9519692
C       1.5050960     -3.7909107     -3.1612762
C       1.6094911     -2.4025961     -3.1591933
H       0.7444497      6.0399776     -0.3594282
H      -0.0193575      4.8948268      0.7793594
H       1.7843314      6.1388943      1.9698939
H       2.9615802      5.6658296      0.7156585
H       2.2564981      4.4163319      1.7717347
H       0.6122446      0.0726281      0.4381873
H       1.7524862      2.2713412     -2.1890512
H       1.9816326      0.2206615     -2.9559202
H       1.7228477     -1.8523076      0.1909547
H       1.4820842     -4.3266171      0.2024462
H       1.3483485     -5.5761036     -1.9504428
H       1.4709882     -4.3327378     -4.1083257
H       1.6467705     -1.8554350     -4.1044955
H      -3.6429252      0.1006517      4.5245412
C      -3.0877697      0.4772631      3.6712045
H      -4.2476386      0.1167938      1.7977353
H      -0.9702848      0.2816385      5.5351197
C      -3.3866880      0.4901633      2.3446009
H      -1.7146560      1.9038370      5.7295553
C      -1.1314763      1.2577441      5.0638561
N      -1.8490740      1.0743877      3.8081276
H      -5.5885438     -3.1578004     -1.2528200
H      -5.2434163     -5.2111839      0.1322978
C      -4.7092135     -3.2365491     -0.6112939
C      -4.5170604     -4.3984249      0.1748924
N      -2.3254809      1.1000449      1.7025927
H      -0.1660322      1.7257505      4.8474933
C      -1.4049635      1.4376857      2.6096680
C      -3.7980546     -2.2054113     -0.5758171
C      -3.4165723     -4.4908355      0.9943981
H      -2.5371895      3.3404202      0.2817196
H      -3.9605928     -1.3178710     -1.1893119
H      -3.2589814     -5.3756436      1.6153523
C      -2.1695749      1.2045152      0.2751851
C      -2.3215406      2.4695362     -0.3377616
C      -2.6391862     -2.2788012      0.2496863
C      -2.4634479     -3.4399057      1.0589331
H      -0.4436622      1.8891545      2.3611931
C      -1.6767108     -1.2197890      0.3137052
C      -1.3446925     -3.5047997      1.9372968
C      -1.8841887      0.0538830     -0.4309600
C      -2.1804271      2.5725356     -1.6963061
H      -1.2151375     -4.3922922      2.5605462
H      -2.2821270      3.5406278     -2.1898778
C      -0.4443421     -2.4779931      1.9990745
C      -0.5920074     -1.3221156      1.1776827
C      -1.7656787      0.1489449     -1.8552025
C      -1.9074522      1.4198330     -2.4859788
O       0.3334940     -0.3646332      1.3179616
H       0.4234759     -2.5171922      2.6597919
C      -1.4796624     -0.9888005     -2.6572606
C      -1.7634303      1.5117754     -3.8970861
H      -1.3355843     -1.9564633     -2.1732169
H      -1.8687892      2.4895707     -4.3714000
C      -1.3554514     -0.8698633     -4.0209351
C      -1.4965974      0.3922958     -4.6487202
H      -1.1285708     -1.7518452     -4.6219352
H      -1.3885073      0.4730167     -5.7314035
H       4.2974243     -0.2286292      2.6880130
C       4.2127988     -0.3536482     -0.5365119
C       4.1875051      0.7611890     -1.4609204
C       3.5191679      1.4979416      0.6428883
C       3.6332781     -0.6360033      1.9111419
C       3.6836070      1.8759434     -0.7989982
N       3.7194880      0.1397268      0.7009836
O       3.2588838      2.2055459      1.5970671
O       4.5953003     -1.5043225     -0.6701633
H       4.5629805      0.6889372     -2.4778851
H       3.9427782     -1.6591595      1.6641942
H       3.8269518      2.9229742     -1.0652215
H       2.5987171     -0.6389406      2.2837649
          85

O       0.4985450      2.5911177      0.8264847
C       1.0269986      2.8405040     -0.2380282
O       1.2281027      4.1031679     -0.6619197
C       0.9124894      5.1479006      0.2590520
C       2.0482522      5.3536126      1.2422981
C       1.5792500      1.8760374     -1.1840553
N       1.2741828      0.5566125     -1.0335203
C       1.6881248     -0.2243500     -1.9926781
C       1.6354672     -1.6873179     -1.9537520
C       1.6246089     -2.4009894     -0.7465401
C       1.5078088     -3.7886574     -0.7464208
C       1.4375999     -4.4899084     -1.9514215
C       1.5050931     -3.7935130     -3.1613367
C       1.6096210     -2.4052488     -3.1602256
H       0.7431387      6.0386112     -0.3591811
H      -0.0206116      4.8946686      0.7807113
H       1.7845957      6.1343138      1.9698143
H       2.9607282      5.6644852      0.7134306
H       2.2580047      4.4124946      1.7682184
H       0.6086611      0.0718180      0.4350816
H       1.7294644      2.2681779     -2.1963002
H       1.9716397      0.2184608     -2.9587818
H       1.7210566     -1.8521938      0.1896809
H       1.4815023     -4.3271729      0.2029449
H       1.3467045     -5.5774634     -1.9492388
H       1.4710409     -4.3361790     -4.1078850
H       1.6468387     -1.8584461     -4.1057306
H      -3.6434750      0.1001439      4.5245643
C      -3.0882211      0.4768690      3.6713431
H      -4.2480845      0.1170224      1.7978140
H      -0.9729616      0.2818768      5.5369705
C      -3.3870853      0.4901908      2.3447378
H      -1.7162207      1.9048299      5.7292760
C      -1.1328663      1.2577103      5.0647211
N      -1.8495298      1.0738184      3.8084975
H      -5.5886693     -3.1582177     -1.2528707
H      -5.2436161     -5.2111232      0.1329962
C      -4.7093015     -3.2368234     -0.6113777
C      -4.5171918     -4.3984088      0.1752227
N      -2.3258096      1.1000529      1.7027354
H      -0.1668352      1.7247611      4.8489280
C      -1.4053927      1.4373882      2.6101596
C      -3.7981372     -2.2057087     -0.5761462
C      -3.4167616     -4.4905677      0.9948176
H      -2.5380687      3.3401566      0.2809931
H      -3.9607529     -1.3182469     -1.1897110
H      -3.2593398     -5.3750962      1.6162105
C      -2.1704190      1.2042071      0.2750359
C      -2.3226334      2.4690839     -0.3383137
C      -2.6392063     -2.2790405      0.2492726
C      -2.4634180     -3.4399053      1.0587991
H      -0.4440739      1.8888091      2.3625057
C      -1.6769205     -1.2200279      0.3133207
C      -1.3446301     -3.5049609      1.9371011
C      -1.8852808      0.0535791     -0.4312263
C      -2.1813757      2.5720069     -1.6968437
H      -1.2151894     -4.3924969      2.5603129
H      -2.2828146      3.5401426     -2.1903954
C      -0.4442874     -2.4781932      1.9988524
C      -0.5923013     -1.3222607      1.1775574
C      -1.7673662      0.1484497     -1.8556444
C      -1.9085877      1.4192638     -2.4865643
O       0.3330171     -0.3647499      1.3169501
H       0.4236192     -2.5173066      2.6594601
C      -1.4805732     -0.9891414     -2.6575995
C      -1.7637716      1.5114686     -3.8976008
H      -1.3362364     -1.9567818     -2.1735827
H      -1.8687438      2.4893541     -4.3718164
C      -1.3558338     -0.8701143     -4.0212480
C      -1.4969588      0.3919630     -4.6491928
H      -1.1284721     -1.7520426     -4.6221517
H      -1.3884858      0.4726224     -5.7318421
H       4.2972171     -0.2272914      2.6844345
C       4.2022859     -0.3535412     -0.5423201
C       4.1607529      0.7566110     -1.4684800
C       3.5046412      1.4954138      0.6392634
C       3.6320477     -0.6363261      1.9092980
C       3.6491974      1.8722413     -0.8060487
N       3.7123845      0.1391597      0.6985135
O       3.2508930      2.2042662      1.5944526
O       4.5922562     -1.5024354     -0.6736962
H       4.5345364      0.6861102     -2.4861562
H       3.9434418     -1.6587599      1.6616270
H       3.8012955      2.9188697     -1.0690901
H       2.5984884     -0.6416746      2.2854518
          85

O       0.4945321      2.5883747      0.8243392
C       1.0148533      2.8395838     -0.2425861
O       1.2245363      4.1018352     -0.6626032
C       0.9117053      5.1470645      0.2590011
C       2.0477966      5.3522595      1.2417564
C       1.5513454      1.8738675     -1.1951663
N       1.2621194      0.5528182     -1.0379663
C       1.6846475     -0.2260741     -1.9949236
C       1.6356205     -1.6885835     -1.9543986
C       1.6243095     -2.4016947     -0.7470452
C       1.5073244     -3.7893201     -0.7462952
C       1.4370704     -4.4907453     -1.9512416
C       1.5046414     -3.7946921     -3.1613769
C       1.6094775     -2.4065597     -3.1605169
H       0.7428512      6.0379557     -0.3592341
H      -0.0215320      4.8947224      0.7809712
H       1.7836785      6.1320988      1.9700456
H       2.9598328      5.6643696      0.7128922
H       2.2584436      4.4107973      1.7666405
H       0.6067102      0.0703110      0.4330321
H       1.6982855      2.2652556     -2.2085826
H       1.9623116      0.2165971     -2.9626498
H       1.7194505     -1.8524255      0.1889811
H       1.4805234     -4.3273752      0.2033141
H       1.3456544     -5.5782786     -1.9488006
H       1.4701774     -4.3375202     -4.1078002
H       1.6463755     -1.8600705     -4.1062532
H      -3.6438230      0.1002430      4.5246493
C      -3.0883069      0.4767731      3.6714390
H      -4.2486922      0.1173100      1.7982225
H      -0.9746483      0.2818581      5.5377726
C      -3.3874110      0.4902371      2.3448737
H      -1.7172255      1.9050935      5.7290806
C      -1.1335013      1.2576574      5.0651624
N      -1.8494245      1.0733443      3.8085221
H      -5.5889346     -3.1584519     -1.2527124
H      -5.2433055     -5.2112835      0.1333870
C      -4.7093753     -3.2369639     -0.6114712
C      -4.5170863     -4.3983853      0.1752911
N      -2.3261217      1.1000683      1.7026505
H      -0.1671510      1.7243415      4.8500254
C      -1.4057014      1.4373424      2.6101947
C      -3.7982231     -2.2058396     -0.5762512
C      -3.4168720     -4.4900633      0.9950853
H      -2.5382137      3.3401400      0.2804431
H      -3.9608801     -1.3182114     -1.1895953
H      -3.2593379     -5.3743935      1.6166875
C      -2.1706656      1.2040713      0.2749201
C      -2.3232567      2.4687787     -0.3386301
C      -2.6390638     -2.2790907      0.2489591
C      -2.4633057     -3.4397420      1.0586633
H      -0.4445631      1.8891485      2.3630157
C      -1.6769825     -1.2200743      0.3129601
C      -1.3445994     -3.5051860      1.9369316
C      -1.8858425      0.0535010     -0.4314481
C      -2.1817086      2.5715067     -1.6971445
H      -1.2153653     -4.3925643      2.5603647
H      -2.2828077      3.5395850     -2.1908816
C      -0.4442601     -2.4785197      1.9987976
C      -0.5924912     -1.3226694      1.1773403
C      -1.7682455      0.1481280     -1.8559305
C      -1.9089835      1.4188584     -2.4870057
O       0.3327241     -0.3651561      1.3162504
H       0.4235331     -2.5176917      2.6595608
C      -1.4807724     -0.9893893     -2.6576858
C      -1.7639125      1.5113824     -3.8980261
H      -1.3358054     -1.9569706     -2.1737366
H      -1.8686275      2.4892897     -4.3722642
C      -1.3562124     -0.8702092     -4.0213941
C      -1.4973504      0.3917871     -4.6495103
H      -1.1283663     -1.7519465     -4.6224163
H      -1.3888054      0.4724901     -5.7321526
H       4.2934722     -0.2285721      2.6842428
C       4.1966642     -0.3547441     -0.5458422
C       4.1402652      0.7543152     -1.4722204
C       3.4920050      1.4923364      0.6358612
C       3.6292440     -0.6371132      1.9081605
C       3.6127600      1.8671175     -0.8126272
N       3.7105651      0.1377120      0.6972842
O       3.2479309      2.2031796      1.5919735
O       4.5891463     -1.5029164     -0.6767292
H       4.5153623      0.6868982     -2.4896847
H       3.9402051     -1.6599545      1.6614195
H       3.7713961      2.9135828     -1.0750793
H       2.5951117     -0.6416802      2.2821447
          85

O       0.4911581      2.5858544      0.8228667
C       1.0025001      2.8389471     -0.2473605
O       1.2204746      4.1009747     -0.6636802
C       0.9104076      5.1465570      0.2585923
C       2.0465695      5.3513509      1.2412841
C       1.5219984      1.8713628     -1.2063515
N       1.2503560      0.5485126     -1.0419456
C       1.6815493     -0.2279383     -1.9971553
C       1.6357335     -1.6902085     -1.9550067
C       1.6239505     -2.4027014     -0.7472836
C       1.5069339     -3.7902040     -0.7468690
C       1.4372317     -4.4921692     -1.9516571
C       1.5039177     -3.7962168     -3.1617323
C       1.6084593     -2.4080298     -3.1608937
H       0.7419410      6.0374866     -0.3596315
H      -0.0227541      4.8950787      0.7810838
H       1.7826796      6.1325884      1.9681853
H       2.9592332      5.6617027      0.7125064
H       2.2558044      4.4102932      1.7674297
H       0.6051068      0.0682851      0.4301179
H       1.6663170      2.2614791     -2.2202291
H       1.9516585      0.2148099     -2.9669141
H       1.7189487     -1.8536735      0.1889113
H       1.4797492     -4.3282862      0.2027201
H       1.3463612     -5.5797249     -1.9489862
H       1.4693238     -4.3389692     -4.1082052
H       1.6448906     -1.8612955     -4.1064506
H      -3.6438616      0.1001120      4.5244245
C      -3.0885839      0.4767474      3.6711846
H      -4.2486004      0.1170197      1.7977189
H      -0.9731784      0.2816123      5.5367737
C      -3.3875302      0.4901050      2.3445886
H      -1.7161695      1.9047089      5.7289074
C      -1.1329616      1.2574032      5.0644023
N      -1.8497974      1.0734218      3.8082707
H      -5.5888161     -3.1584076     -1.2529973
H      -5.2437634     -5.2112623      0.1328591
C      -4.7094657     -3.2369667     -0.6114744
C      -4.5173554     -4.3985355      0.1751173
N      -2.3262337      1.0997854      1.7025007
H      -0.1668801      1.7242785      4.8484677
C      -1.4057293      1.4367656      2.6099310
C      -3.7983914     -2.2058076     -0.5761870
C      -3.4169636     -4.4906822      0.9947424
H      -2.5395054      3.3398427      0.2806544
H      -3.9610410     -1.3183315     -1.1897081
H      -3.2595452     -5.3752065      1.6161419
C      -2.1712268      1.2038970      0.2747602
C      -2.3236912      2.4688284     -0.3386390
C      -2.6395024     -2.2791783      0.2492060
C      -2.4636489     -3.4400636      1.0587171
H      -0.4444594      1.8879480      2.3626231
C      -1.6773040     -1.2202551      0.3131318
C      -1.3449180     -3.5053620      1.9370108
C      -1.8859210      0.0533617     -0.4314444
C      -2.1819347      2.5717825     -1.6970834
H      -1.2155760     -4.3929479      2.5601747
H      -2.2834908      3.5399028     -2.1906853
C      -0.4445448     -2.4786835      1.9986556
C      -0.5926929     -1.3228869      1.1772984
C      -1.7681538      0.1481615     -1.8559743
C      -1.9092258      1.4188954     -2.4868482
O       0.3328441     -0.3656218      1.3151424
H       0.4234977     -2.5177792      2.6590815
C      -1.4812331     -0.9894070     -2.6577880
C      -1.7642399      1.5110886     -3.8978029
H      -1.3370390     -1.9570209     -2.1736717
H      -1.8691548      2.4889592     -4.3720730
C      -1.3563670     -0.8705317     -4.0214706
C      -1.4974497      0.3915200     -4.6494052
H      -1.1289644     -1.7524969     -4.6223040
H      -1.3890159      0.4722083     -5.7320566
H       4.2904041     -0.2307808      2.6841005
C       4.1903256     -0.3558666     -0.5496026
C       4.1189517      0.7520090     -1.4769338
C       3.4797743      1.4896347      0.6319543
C       3.6264740     -0.6379904      1.9070451
C       3.5780649      1.8625973     -0.8192823
N       3.7094290      0.1366861      0.6960488
O       3.2455259      2.2021355      1.5891494
O       4.5868464     -1.5027565     -0.6797118
H       4.4964821      0.6884975     -2.4938589
H       3.9365558     -1.6610137      1.6598265
H       3.7401332      2.9086489     -1.0810440
H       2.5918448     -0.6418557      2.2806641
          85

O       0.4854853      2.5845636      0.8214385
C       0.9906857      2.8374978     -0.2509226
O       1.2136225      4.0988469     -0.6655707
C       0.9079729      5.1453750      0.2577275
C       2.0449668      5.3491600      1.2397469
C       1.5034785      1.8679989     -1.2130472
N       1.2335171      0.5445180     -1.0466923
C       1.6742050     -0.2304132     -1.9992588
C       1.6341998     -1.6928727     -1.9561739
C       1.6234901     -2.4046356     -0.7481094
C       1.5070794     -3.7921517     -0.7474130
C       1.4373832     -4.4943186     -1.9521165
C       1.5034684     -3.7988446     -3.1624573
C       1.6074295     -2.4106486     -3.1618959
H       0.7405630      6.0364342     -0.3605642
H      -0.0252053      4.8959708      0.7811797
H       1.7821820      6.1324125      1.9648919
H       2.9582554      5.6569433      0.7105827
H       2.2524597      4.4088247      1.7677854
H       0.6020626      0.0666143      0.4262401
H       1.6402801      2.2578358     -2.2286907
H       1.9395529      0.2120529     -2.9703400
H       1.7174176     -1.8551239      0.1879175
H       1.4799210     -4.3301217      0.2022343
H       1.3466378     -5.5818847     -1.9491280
H       1.4685491     -4.3418858     -4.1087426
H       1.6427292     -1.8638815     -4.1074704
H      -3.6443591      0.1002483      4.5242914
C      -3.0890022      0.4767372      3.6710421
H      -4.2489764      0.1169015      1.7975359
H      -0.9711906      0.2810385      5.5352184
C      -3.3878859      0.4899340      2.3444105
H      -1.7148257      1.9036671      5.7289398
C      -1.1320866      1.2569471      5.0634627
N      -1.8501063      1.0732122      3.8080091
H      -5.5891446     -3.1584212     -1.2531033
H      -5.2439794     -5.2116565      0.1320869
C      -4.7098327     -3.2370722     -0.6115371
C      -4.5176490     -4.3988788      0.1746889
N      -2.3265338      1.0993824      1.7022743
H      -0.1665018      1.7244308      4.8466084
C      -1.4059794      1.4361259      2.6096577
C      -3.7988371     -2.2058792     -0.5759699
C      -3.4172211     -4.4912563      0.9942617
H      -2.5404512      3.3395508      0.2808122
H      -3.9614487     -1.3183112     -1.1893587
H      -3.2596773     -5.3760505      1.6152502
C      -2.1719117      1.2036084      0.2745842
C      -2.3245581      2.4686657     -0.3386563
C      -2.6400391     -2.2793625      0.2495067
C      -2.4641216     -3.4404489      1.0587609
H      -0.4445789      1.8868507      2.3626683
C      -1.6778361     -1.2205056      0.3132651
C      -1.3453862     -3.5056938      1.9370739
C      -1.8866549      0.0530801     -0.4314839
C      -2.1824688      2.5718219     -1.6970137
H      -1.2159502     -4.3933180      2.5601691
H      -2.2839231      3.5399698     -2.1905965
C      -0.4449741     -2.4790257      1.9986853
C      -0.5930313     -1.3232021      1.1773000
C      -1.7690154      0.1480211     -1.8560127
C      -1.9097694      1.4188042     -2.4867516
O       0.3328452     -0.3663175      1.3136120
H       0.4231627     -2.5182515      2.6589867
C      -1.4820409     -0.9895310     -2.6577130
C      -1.7645029      1.5109159     -3.8976477
H      -1.3381413     -1.9571364     -2.1734936
H      -1.8693837      2.4887485     -4.3720113
C      -1.3566910     -0.8707408     -4.0213605
C      -1.4975240      0.3913423     -4.6492350
H      -1.1292909     -1.7527360     -4.6221530
H      -1.3889210      0.4720982     -5.7318630
H       4.2906689     -0.2308549      2.6803411
C       4.1802613     -0.3557422     -0.5549164
C       4.0922098      0.7478986     -1.4844143
C       3.4664487      1.4877927      0.6274656
C       3.6251044     -0.6380974      1.9047297
C       3.5465793      1.8588637     -0.8264819
N       3.7039861      0.1364111      0.6931720
O       3.2396029      2.2014136      1.5855351
O       4.5846353     -1.5001486     -0.6838000
H       4.4691204      0.6861075     -2.5016899
H       3.9350492     -1.6609681      1.6566294
H       3.7160209      2.9045327     -1.0875320
H       2.5912573     -0.6424365      2.2797244
          85

O       0.4793882      2.5828179      0.8191768
C       0.9802808      2.8365558     -0.2541344
O       1.2070529      4.0968541     -0.6674182
C       0.9052980      5.1443187      0.2567584
C       2.0433898      5.3466134      1.2378030
C       1.4900653      1.8649557     -1.2184745
N       1.2186576      0.5404555     -1.0504085
C       1.6669924     -0.2324265     -2.0010741
C       1.6319499     -1.6952494     -1.9573634
C       1.6225882     -2.4063192     -0.7490067
C       1.5072530     -3.7939304     -0.7479016
C       1.4375857     -4.4963961     -1.9524499
C       1.5031648     -3.8013791     -3.1630429
C       1.6061367     -2.4130930     -3.1628250
H       0.7389165      6.0354328     -0.3616611
H      -0.0278836      4.8967132      0.7810324
H       1.7818502      6.1311062      1.9620590
H       2.9569194      5.6525504      0.7080213
H       2.2497584      4.4065944      1.7667753
H       0.5996476      0.0647662      0.4224621
H       1.6150571      2.2544572     -2.2360437
H       1.9276677      0.2098131     -2.9734566
H       1.7156873     -1.8563313      0.1868195
H       1.4804712     -4.3316874      0.2018651
H       1.3471650     -5.5839923     -1.9491264
H       1.4684200     -4.3447254     -4.1091437
H       1.6407445     -1.8664751     -4.1085075
H      -3.6447927      0.1002877      4.5243321
C      -3.0893955      0.4766459      3.6710537
H      -4.2495414      0.1169697      1.7976111
H      -0.9699706      0.2804913      5.5343333
C      -3.3883463      0.4898520      2.3444240
H      -1.7141250      1.9027829      5.7289902
C      -1.1316190      1.2564543      5.0629352
N      -1.8503671      1.0728361      3.8078914
H      -5.5895226     -3.1585747     -1.2531707
H      -5.2441067     -5.2120810      0.1315348
C      -4.7102084     -3.2372646     -0.6116114
C      -4.5178882     -4.3992152      0.1743538
N      -2.3269589      1.0990727      1.7021693
H      -0.1663517      1.7243482      4.8455492
C      -1.4063051      1.4354993      2.6095296
C      -3.7993303     -2.2060031     -0.5758147
C      -3.4174811     -4.4916401      0.9939611
H      -2.5414521      3.3392477      0.2807613
H      -3.9620196     -1.3183314     -1.1890205
H      -3.2598688     -5.3765642      1.6147498
C      -2.1727869      1.2032782      0.2744497
C      -2.3255462      2.4683980     -0.3387718
C      -2.6405383     -2.2795773      0.2496288
C      -2.4645153     -3.4407515      1.0587410
H      -0.4447940      1.8858010      2.3630227
C      -1.6783966     -1.2207712      0.3132653
C      -1.3457890     -3.5060062      1.9370747
C      -1.8876343      0.0527568     -0.4315547
C      -2.1831645      2.5716795     -1.6970655
H      -1.2163366     -4.3936585      2.5601321
H      -2.2844757      3.5398613     -2.1906241
C      -0.4453715     -2.4793467      1.9986446
C      -0.5934152     -1.3235184      1.1771942
C      -1.7702275      0.1477541     -1.8561239
C      -1.9105434      1.4185653     -2.4868049
O       0.3326807     -0.3669479      1.3121432
H       0.4228450     -2.5185937      2.6588446
C      -1.4830513     -0.9897418     -2.6577360
C      -1.7647621      1.5107513     -3.8976280
H      -1.3394319     -1.9573660     -2.1734793
H      -1.8694253      2.4886092     -4.3719909
C      -1.3570694     -0.8709192     -4.0213286
C      -1.4976097      0.3911880     -4.6491981
H      -1.1295077     -1.7529037     -4.6220790
H      -1.3886722      0.4719912     -5.7317865
H       4.2910117     -0.2300832      2.6761543
C       4.1709409     -0.3555634     -0.5611129
C       4.0665630      0.7435314     -1.4915671
C       3.4523539      1.4856167      0.6230912
C       3.6239670     -0.6378636      1.9020928
C       3.5101171      1.8548054     -0.8339555
N       3.6981496      0.1363016      0.6899825
O       3.2334350      2.2008654      1.5818738
O       4.5819763     -1.4982672     -0.6876991
H       4.4437344      0.6847433     -2.5089358
H       3.9344301     -1.6603956      1.6531106
H       3.6919610      2.8995616     -1.0921855
H       2.5909943     -0.6433715      2.2796624
          85

O       0.4734238      2.5808424      0.8162853
C       0.9712282      2.8358797     -0.2570854
O       1.2008431      4.0949461     -0.6691906
C       0.9026211      5.1434094      0.2558417
C       2.0418950      5.3440988      1.2358155
C       1.4821387      1.8619527     -1.2226352
N       1.2046437      0.5362425     -1.0535734
C       1.6601549     -0.2342530     -2.0024936
C       1.6296258     -1.6975267     -1.9584979
C       1.6215725     -2.4077834     -0.7498407
C       1.5073807     -3.7955010     -0.7483030
C       1.4378366     -4.4982273     -1.9527104
C       1.5028680     -3.8037078     -3.1635830
C       1.6047652     -2.4153182     -3.1637128
H       0.7371880      6.0344901     -0.3627775
H      -0.0305580      4.8973923      0.7808173
H       1.7815287      6.1294377      1.9595660
H       2.9554791      5.6485823      0.7053661
H       2.2475176      4.4042304      1.7652887
H       0.5975487      0.0628480      0.4185973
H       1.5907055      2.2510473     -2.2427208
H       1.9168337      0.2077097     -2.9760026
H       1.7139575     -1.8572483      0.1857241
H       1.4810261     -4.3330626      0.2015677
H       1.3478690     -5.5858652     -1.9490506
H       1.4684045     -4.3473892     -4.1094793
H       1.6387628     -1.8688660     -4.1095074
H      -3.6452418      0.1002548      4.5244143
C      -3.0898064      0.4765106      3.6711189
H      -4.2501430      0.1170902      1.7977397
H      -0.9692258      0.2799813      5.5337699
C      -3.3888341      0.4897939      2.3444955
H      -1.7137310      1.9020498      5.7290388
C      -1.1313757      1.2559748      5.0626105
N      -1.8506542      1.0724033      3.8078605
H      -5.5898939     -3.1587995     -1.2532294
H      -5.2442453     -5.2124803      0.1311366
C      -4.7105711     -3.2374963     -0.6116817
C      -4.5181232     -4.3995372      0.1741022
N      -2.3274081      1.0987919      1.7021183
H      -0.1663349      1.7241581      4.8448383
C      -1.4066624      1.4348581      2.6094993
C      -3.7998109     -2.2061635     -0.5757112
C      -3.4177367     -4.4919657      0.9937465
H      -2.5425432      3.3389387      0.2806385
H      -3.9626003     -1.3184108     -1.1887603
H      -3.2600727     -5.3769697      1.6144103
C      -2.1737273      1.2029369      0.2743341
C      -2.3266026      2.4680983     -0.3389192
C      -2.6410118     -2.2798008      0.2496875
C      -2.4648756     -3.4410251      1.0587036
H      -0.4450265      1.8847179      2.3636316
C      -1.6789515     -1.2210332      0.3132233
C      -1.3461447     -3.5062861      1.9370400
C      -1.8886727      0.0524269     -0.4316354
C      -2.1839400      2.5714948     -1.6971624
H      -1.2166787     -4.3939611      2.5600676
H      -2.2851359      3.5397074     -2.1906970
C      -0.4457288     -2.4796323      1.9985567
C      -0.5937889     -1.3237790      1.1770634
C      -1.7715240      0.1474601     -1.8562563
C      -1.9113773      1.4182939     -2.4869050
O       0.3324419     -0.3674666      1.3107023
H       0.4225713     -2.5188804      2.6586511
C      -1.4841558     -0.9899792     -2.6578050
C      -1.7650351      1.5105802     -3.8976628
H      -1.3408711     -1.9576413     -2.1735356
H      -1.8694638      2.4884715     -4.3720103
C      -1.3574695     -0.8710928     -4.0213345
C      -1.4976845      0.3910423     -4.6492164
H      -1.1297389     -1.7530628     -4.6220469
H      -1.3883609      0.4718895     -5.7317589
H       4.2914568     -0.2291379      2.6720013
C       4.1620860     -0.3550898     -0.5677939
C       4.0412300      0.7387400     -1.4985566
C       3.4378540      1.4832211      0.6189954
C       3.6230546     -0.6374862      1.8993868
C       3.4705598      1.8506572     -0.8414538
N       3.6924384      0.1364485      0.6868135
O       3.2274156      2.2003869      1.5783818
O       4.5794277     -1.4965638     -0.6913475
H       4.4186678      0.6835655     -2.5160447
H       3.9342482     -1.6595838      1.6493955
H       3.6692357      2.8941872     -1.0950517
H       2.5909812     -0.6443805      2.2796326
          85

O       0.4697654      2.5820662      0.8136196
C       0.9810953      2.8363842     -0.2532494
O       1.1977838      4.0936363     -0.6706217
C       0.8997357      5.1433678      0.2547829
C       2.0409281      5.3418974      1.2331674
C       1.5341734      1.8609862     -1.2069905
N       1.2031943      0.5366671     -1.0505586
C       1.6544386     -0.2339703     -2.0000734
C       1.6252181     -1.6989442     -1.9592856
C       1.6203354     -2.4084963     -0.7505116
C       1.5084283     -3.7965754     -0.7484504
C       1.4386527     -4.4988956     -1.9528693
C       1.5034164     -3.8050017     -3.1641559
C       1.6033573     -2.4163538     -3.1646831
H       0.7350821      6.0340233     -0.3643112
H      -0.0333022      4.8981093      0.7801096
H       1.7828177      6.1278726      1.9569474
H       2.9542359      5.6448848      0.7013812
H       2.2460860      4.4021709      1.7630876
H       0.5977020      0.0628268      0.4165494
H       1.6057011      2.2511317     -2.2333729
H       1.9191110      0.2079487     -2.9713775
H       1.7131031     -1.8570066      0.1844635
H       1.4838266     -4.3342890      0.2013284
H       1.3496528     -5.5866254     -1.9490636
H       1.4699911     -4.3492915     -4.1096877
H       1.6370557     -1.8699717     -4.1105286
H      -3.6457523      0.1001454      4.5247191
C      -3.0902563      0.4763312      3.6714331
H      -4.2507732      0.1173496      1.7980859
H      -0.9681892      0.2793735      5.5333078
C      -3.3893226      0.4897738      2.3448072
H      -1.7133487      1.9010657      5.7294552
C      -1.1310914      1.2554273      5.0625319
N      -1.8509914      1.0719497      3.8081258
H      -5.5904146     -3.1590973     -1.2532024
H      -5.2443819     -5.2130360      0.1307311
C      -4.7110577     -3.2378185     -0.6117050
C      -4.5183945     -4.3999817      0.1738526
N      -2.3278269      1.0985469      1.7022988
H      -0.1663888      1.7241112      4.8443110
C      -1.4070431      1.4342707      2.6098026
C      -3.8004145     -2.2064069     -0.5755476
C      -3.4179945     -4.4924075      0.9935197
H      -2.5432820      3.3386661      0.2806905
H      -3.9633621     -1.3185562     -1.1884031
H      -3.2602423     -5.3775136      1.6140184
C      -2.1746773      1.2026205      0.2744107
C      -2.3275779      2.4677721     -0.3388849
C      -2.6415738     -2.2800916      0.2498041
C      -2.4652721     -3.4413434      1.0587043
H      -0.4451227      1.8836102      2.3651883
C      -1.6795860     -1.2212923      0.3132937
C      -1.3464460     -3.5063503      1.9370266
C      -1.8899323      0.0520436     -0.4315739
C      -2.1848796      2.5713603     -1.6971286
H      -1.2168321     -4.3940143      2.5600454
H      -2.2858086      3.5396370     -2.1905726
C      -0.4460591     -2.4796137      1.9985432
C      -0.5940824     -1.3235848      1.1770467
C      -1.7731490      0.1472025     -1.8561691
C      -1.9122530      1.4181744     -2.4868217
O       0.3320915     -0.3673792      1.3098768
H       0.4222737     -2.5188631      2.6586067
C      -1.4855751     -0.9901713     -2.6577650
C      -1.7650722      1.5106520     -3.8975646
H      -1.3428501     -1.9579674     -2.1736175
H      -1.8691944      2.4886067     -4.3718401
C      -1.3576806     -0.8709816     -4.0211446
C      -1.4973202      0.3912343     -4.6490800
H      -1.1297693     -1.7528973     -4.6218788
H      -1.3872463      0.4721150     -5.7315338
H       4.2990293     -0.2242830      2.6653586
C       4.1579784     -0.3514021     -0.5734027
C       4.0348974      0.7346776     -1.5034940
C       3.4349571      1.4839773      0.6192820
C       3.6273794     -0.6354244      1.8968176
C       3.4624899      1.8520377     -0.8434193
N       3.6852304      0.1393786      0.6841202
O       3.2215551      2.2017045      1.5781488
O       4.5808166     -1.4933677     -0.6915653
H       4.4092488      0.6801568     -2.5219046
H       3.9414602     -1.6560241      1.6445075
H       3.6838148      2.8954784     -1.0864318
H       2.5978232     -0.6465280      2.2864946
          85

O       0.4680537      2.5809787      0.8081876
C       0.9924812      2.8385318     -0.2502513
O       1.1978116      4.0940549     -0.6711890
C       0.8973615      5.1443519      0.2538747
C       2.0396695      5.3410542      1.2312811
C       1.5794762      1.8620988     -1.1968758
N       1.2086171      0.5366250     -1.0459509
C       1.6525174     -0.2330459     -1.9973460
C       1.6217143     -1.6992831     -1.9594113
C       1.6190233     -2.4085002     -0.7507586
C       1.5091648     -3.7968845     -0.7485985
C       1.4396166     -4.4989233     -1.9530930
C       1.5035723     -3.8051041     -3.1645448
C       1.6014594     -2.4161776     -3.1650206
H       0.7329836      6.0344463     -0.3657893
H      -0.0358778      4.8983404      0.7782905
H       1.7832045      6.1270471      1.9554964
H       2.9525648      5.6431250      0.6983705
H       2.2449314      4.4012301      1.7610353
H       0.5999916      0.0621343      0.4146409
H       1.6167990      2.2525175     -2.2241213
H       1.9217347      0.2087831     -2.9677518
H       1.7126503     -1.8566188      0.1838626
H       1.4861339     -4.3347804      0.2010678
H       1.3519974     -5.5867790     -1.9493501
H       1.4714723     -4.3495629     -4.1099802
H       1.6355450     -1.8698701     -4.1108958
H      -3.6461215      0.1001069      4.5250138
C      -3.0905950      0.4762084      3.6717109
H      -4.2513309      0.1175590      1.7984199
H      -0.9676446      0.2788402      5.5330651
C      -3.3897575      0.4897704      2.3450956
H      -1.7132057      1.9003032      5.7297867
C      -1.1309630      1.2549565      5.0625854
N      -1.8512253      1.0715639      3.8083440
H      -5.5908027     -3.1594068     -1.2531505
H      -5.2444437     -5.2134880      0.1305142
C      -4.7114153     -3.2381148     -0.6116935
C      -4.5185705     -4.4003379      0.1737163
N      -2.3282370      1.0983465      1.7024663
H      -0.1664571      1.7239461      4.8441662
C      -1.4073883      1.4337088      2.6099959
C      -3.8008865     -2.2066130     -0.5754135
C      -3.4181542     -4.4927051      0.9933950
H      -2.5442952      3.3384350      0.2807552
H      -3.9640103     -1.3186935     -1.1881208
H      -3.2603235     -5.3778648      1.6137976
C      -2.1754391      1.2023963      0.2745298
C      -2.3283509      2.4675533     -0.3387647
C      -2.6419980     -2.2802828      0.2498733
C      -2.4655423     -3.4415493      1.0586969
H      -0.4451787      1.8823408      2.3663982
C      -1.6801094     -1.2214268      0.3133477
C      -1.3466358     -3.5063484      1.9369771
C      -1.8908071      0.0518020     -0.4314796
C      -2.1855175      2.5712609     -1.6970229
H      -1.2168991     -4.3939733      2.5600339
H      -2.2866189      3.5395334     -2.1904367
C      -0.4463182     -2.4795175      1.9984371
C      -0.5942660     -1.3233610      1.1768866
C      -1.7740394      0.1470818     -1.8560236
C      -1.9126784      1.4181448     -2.4866845
O       0.3317466     -0.3671793      1.3091442
H       0.4220342     -2.5187066      2.6584858
C      -1.4866780     -0.9902870     -2.6577254
C      -1.7650836      1.5107391     -3.8974479
H      -1.3449516     -1.9582882     -2.1737335
H      -1.8690122      2.4887404     -4.3716607
C      -1.3578807     -0.8708686     -4.0210076
C      -1.4970410      0.3914240     -4.6489522
H      -1.1299658     -1.7527593     -4.6217874
H      -1.3864362      0.4723625     -5.7313384
H       4.3046479     -0.2219658      2.6614714
C       4.1592771     -0.3487610     -0.5800652
C       4.0322160      0.7303861     -1.5056914
C       3.4306758      1.4824623      0.6210157
C       3.6310519     -0.6337257      1.8948886
C       3.4300856      1.8510698     -0.8458164
N       3.6825723      0.1417502      0.6828915
O       3.2186038      2.2029619      1.5788617
O       4.5825925     -1.4933673     -0.6905777
H       4.4024883      0.6799589     -2.5257388
H       3.9463146     -1.6533031      1.6398690
H       3.6865008      2.8896185     -1.0759573
H       2.6031381     -0.6469548      2.2862380
          85

O       0.4673172      2.5791185      0.8015784
C       1.0037256      2.8407232     -0.2483009
O       1.1989943      4.0946671     -0.6716246
C       0.8954014      5.1455384      0.2531901
C       2.0383797      5.3409997      1.2300132
C       1.6220553      1.8628909     -1.1882294
N       1.2136745      0.5360102     -1.0418650
C       1.6513431     -0.2322196     -1.9946073
C       1.6189633     -1.6995366     -1.9592997
C       1.6180175     -2.4082926     -0.7507375
C       1.5097560     -3.7969077     -0.7486398
C       1.4404711     -4.4984867     -1.9533331
C       1.5034707     -3.8047191     -3.1649081
C       1.5996881     -2.4155726     -3.1651855
H       0.7311177      6.0349844     -0.3671447
H      -0.0381439      4.8983325      0.7763075
H       1.7829085      6.1267643      1.9547252
H       2.9508828      5.6427194      0.6963158
H       2.2440397      4.4010585      1.7595079
H       0.6022016      0.0614772      0.4130398
H       1.6206197      2.2527323     -2.2182191
H       1.9264364      0.2092946     -2.9636350
H       1.7126188     -1.8560478      0.1835377
H       1.4880657     -4.3351174      0.2008340
H       1.3541844     -5.5864640     -1.9497484
H       1.4723706     -4.3492709     -4.1102738
H       1.6340262     -1.8691124     -4.1109582
H      -3.6464143      0.1000835      4.5252765
C      -3.0908777      0.4761169      3.6719496
H      -4.2518391      0.1177618      1.7987263
H      -0.9672991      0.2783780      5.5329207
C      -3.3901441      0.4897770      2.3453470
H      -1.7131310      1.8997009      5.7300380
C      -1.1308830      1.2545506      5.0626634
N      -1.8514159      1.0712276      3.8085289
H      -5.5911082     -3.1596902     -1.2530956
H      -5.2444722     -5.2138547      0.1303794
C      -4.7116935     -3.2383671     -0.6116734
C      -4.5186928     -4.4006252      0.1736351
N      -2.3286004      1.0981671      1.7026032
H      -0.1665011      1.7237357      4.8441183
C      -1.4076872      1.4332036      2.6101536
C      -3.8012747     -2.2067755     -0.5753114
C      -3.4182574     -4.4929329      0.9933151
H      -2.5453465      3.3382273      0.2808244
H      -3.9645719     -1.3188128     -1.1879129
H      -3.2603469     -5.3781243      1.6136511
C      -2.1760789      1.2022213      0.2746363
C      -2.3290254      2.4673835     -0.3386343
C      -2.6423485     -2.2804195      0.2499197
C      -2.4657439     -3.4416879      1.0586870
H      -0.4452174      1.8812340      2.3675258
C      -1.6805242     -1.2215241      0.3133852
C      -1.3467570     -3.5062980      1.9369168
C      -1.8914499      0.0516274     -0.4313875
C      -2.1860188      2.5712266     -1.6969014
H      -1.2169070     -4.3938761      2.5600204
H      -2.2873503      3.5394824     -2.1902960
C      -0.4464810     -2.4793906      1.9983096
C      -0.5943766     -1.3231542      1.1766952
C      -1.7746075      0.1470274     -1.8558664
C      -1.9129002      1.4181758     -2.4865371
O       0.3314653     -0.3668980      1.3084370
H       0.4218905     -2.5185383      2.6583403
C      -1.4875405     -0.9903658     -2.6576727
C      -1.7650405      1.5108539     -3.8973366
H      -1.3467420     -1.9585588     -2.1738216
H      -1.8688948      2.4888741     -4.3715148
C      -1.3580410     -0.8707461     -4.0208742
C      -1.4968166      0.3916165     -4.6488343
H      -1.1302702     -1.7526328     -4.6217215
H      -1.3858717      0.4725732     -5.7311742
H       4.3092203     -0.2213344      2.6594517
C       4.1611186     -0.3461926     -0.5862692
C       4.0271275      0.7265579     -1.5076258
C       3.4242802      1.4803590      0.6227114
C       3.6346409     -0.6326389      1.8933555
C       3.3937714      1.8492161     -0.8481387
N       3.6818995      0.1440519      0.6823109
O       3.2166140      2.2037413      1.5801053
O       4.5851846     -1.4935344     -0.6893486
H       4.3930025      0.6805730     -2.5294434
H       3.9507512     -1.6513217      1.6356818
H       3.6860183      2.8832298     -1.0636848
H       2.6075004     -0.6476669      2.2874583
          85

O       0.4669182      2.5762276      0.7931111
C       1.0170497      2.8428918     -0.2470256
O       1.2017822      4.0958202     -0.6722598
C       0.8933224      5.1467582      0.2522347
C       2.0365570      5.3416001      1.2288496
C       1.6617107      1.8638929     -1.1808699
N       1.2197678      0.5356300     -1.0369114
C       1.6496522     -0.2316563     -1.9913806
C       1.6156302     -1.6997342     -1.9589356
C       1.6168851     -2.4080573     -0.7504942
C       1.5104818     -3.7968391     -0.7486363
C       1.4414306     -4.4977537     -1.9536676
C       1.5031897     -3.8039512     -3.1653407
C       1.5974551     -2.4146171     -3.1653127
H       0.7286905      6.0355887     -0.3686558
H      -0.0405373      4.8974447      0.7736272
H       1.7817728      6.1269108      1.9541960
H       2.9486383      5.6434086      0.6945148
H       2.2428489      4.4015088      1.7579600
H       0.6043632      0.0612203      0.4116279
H       1.6281213      2.2520141     -2.2111590
H       1.9309371      0.2095143     -2.9588814
H       1.7126573     -1.8554471      0.1834205
H       1.4904248     -4.3355565      0.2005413
H       1.3567312     -5.5858665     -1.9503594
H       1.4731139     -4.3485771     -4.1106539
H       1.6318185     -1.8677600     -4.1108452
H      -3.6467174      0.1000960      4.5255953
C      -3.0911845      0.4760318      3.6722212
H      -4.2524500      0.1180135      1.7991046
H      -0.9669887      0.2778342      5.5327845
C      -3.3906003      0.4897968      2.3456418
H      -1.7130576      1.8990298      5.7302999
C      -1.1308082      1.2540701      5.0627529
N      -1.8515901      1.0708507      3.8087018
H      -5.5914452     -3.1600347     -1.2530195
H      -5.2444758     -5.2142740      0.1302642
C      -4.7119965     -3.2386581     -0.6116380
C      -4.5188082     -4.4009483      0.1735692
N      -2.3290292      1.0979545      1.7027541
H      -0.1665376      1.7234347      4.8441065
C      -1.4079749      1.4326536      2.6102512
C      -3.8017117     -2.2069531     -0.5751971
C      -3.4183451     -4.4931718      0.9932443
H      -2.5466188      3.3379834      0.2809472
H      -3.9651945     -1.3189464     -1.1876901
H      -3.2603332     -5.3783934      1.6135115
C      -2.1767855      1.2020525      0.2747538
C      -2.3298308      2.4672150     -0.3384616
C      -2.6427332     -2.2805482      0.2499698
C      -2.4659490     -3.4418159      1.0586770
H      -0.4452367      1.8800875      2.3682738
C      -1.6809725     -1.2216089      0.3134097
C      -1.3468562     -3.5061969      1.9368323
C      -1.8921062      0.0514777     -0.4312812
C      -2.1866068      2.5712070     -1.6967253
H      -1.2168723     -4.3937156      2.5599980
H      -2.2881862      3.5394472     -2.1900948
C      -0.4466193     -2.4792097      1.9981263
C      -0.5944799     -1.3228994      1.1764383
C      -1.7751473      0.1470154     -1.8556869
C      -1.9131135      1.4182538     -2.4863501
O       0.3311491     -0.3665491      1.3076687
H       0.4217752     -2.5183104      2.6581356
C      -1.4884473     -0.9904107     -2.6576072
C      -1.7649595      1.5110201     -3.8971784
H      -1.3486524     -1.9588119     -2.1739086
H      -1.8687273      2.4890635     -4.3713192
C      -1.3582525     -0.8705899     -4.0207303
C      -1.4965659      0.3918568     -4.6486799
H      -1.1306946     -1.7524841     -4.6216526
H      -1.3852777      0.4728418     -5.7309747
H       4.3155418     -0.2211385      2.6572385
C       4.1631049     -0.3437908     -0.5924040
C       4.0196553      0.7229215     -1.5098028
C       3.4156552      1.4774852      0.6248111
C       3.6396752     -0.6317765      1.8918056
C       3.3576450      1.8466222     -0.8489851
N       3.6819716      0.1461405      0.6818451
O       3.2140058      2.2040394      1.5818852
O       4.5893615     -1.4931547     -0.6880760
H       4.3755787      0.6804625     -2.5353083
H       3.9564354     -1.6495091      1.6311217
H       3.6806373      2.8752602     -1.0501393
H       2.6135065     -0.6485333      2.2887091
          85

O       0.4668725      2.5714450      0.7791441
C       1.0330824      2.8458773     -0.2491332
O       1.2109907      4.0986837     -0.6736310
C       0.8908399      5.1479973      0.2496498
C       2.0321009      5.3448782      1.2278156
C       1.6929904      1.8652746     -1.1767737
N       1.2279624      0.5366734     -1.0289498
C       1.6464176     -0.2309321     -1.9860584
C       1.6095227     -1.6993469     -1.9571183
C       1.6146303     -2.4080278     -0.7493271
C       1.5120168     -3.7970369     -0.7486799
C       1.4434707     -4.4964479     -1.9545530
C       1.5021349     -3.8017447     -3.1659510
C       1.5922241     -2.4121360     -3.1647113
H       0.7238166      6.0360881     -0.3715304
H      -0.0433959      4.8925998      0.7673125
H       1.7762434      6.1288392      1.9541188
H       2.9437003      5.6483830      0.6936777
H       2.2400132      4.4044697      1.7559446
H       0.6069213      0.0625987      0.4111316
H       1.6327980      2.2491112     -2.2100258
H       1.9291288      0.2095719     -2.9535010
H       1.7120062     -1.8555202      0.1844881
H       1.4952464     -4.3370533      0.1997930
H       1.3622411     -5.5848388     -1.9522146
H       1.4735421     -4.3459654     -4.1115129
H       1.6254803     -1.8640141     -4.1095382
H      -3.6470036      0.1003057      4.5263279
C      -3.0916131      0.4759747      3.6727380
H      -4.2537584      0.1185644      1.8000232
H      -0.9665275      0.2766457      5.5323962
C      -3.3915283      0.4898951      2.3462705
H      -1.7129015      1.8976330      5.7306733
C      -1.1306172      1.2530451      5.0628031
N      -1.8516687      1.0701932      3.8087947
H      -5.5921010     -3.1607986     -1.2528108
H      -5.2443882     -5.2151703      0.1301223
C      -4.7125809     -3.2392722     -0.6115068
C      -4.5189771     -4.4016191      0.1735080
N      -2.3299313      1.0975473      1.7030012
H      -0.1664772      1.7226792      4.8441676
C      -1.4083175      1.4317477      2.6100789
C      -3.8025883     -2.2073021     -0.5749355
C      -3.4184376     -4.4936110      0.9931506
H      -2.5490523      3.3375463      0.2813202
H      -3.9664133     -1.3192292     -1.1872534
H      -3.2601670     -5.3788805      1.6132878
C      -2.1781919      1.2018023      0.2749675
C      -2.3315430      2.4669555     -0.3380818
C      -2.6434675     -2.2807235      0.2500814
C      -2.4663067     -3.4420000      1.0586595
H      -0.4453284      1.8785332      2.3679103
C      -1.6818222     -1.2216514      0.3133991
C      -1.3469805     -3.5059378      1.9366239
C      -1.8933001      0.0513422     -0.4311189
C      -2.1878663      2.5712137     -1.6962920
H      -1.2166961     -4.3933356      2.5599077
H      -2.2897618      3.5394578     -2.1895875
C      -0.4468614     -2.4788038      1.9976642
C      -0.5947422     -1.3223985      1.1758869
C      -1.7761212      0.1471082     -1.8554150
C      -1.9135653      1.4185055     -2.4859491
O       0.3306027     -0.3660363      1.3069027
H       0.4215966     -2.5177597      2.6576063
C      -1.4901424     -0.9903778     -2.6575252
C      -1.7647216      1.5114648     -3.8967450
H      -1.3518681     -1.9590926     -2.1740594
H      -1.8681596      2.4895882     -4.3707881
C      -1.3588886     -0.8702511     -4.0205192
C      -1.4960985      0.3924114     -4.6483010
H      -1.1317510     -1.7521715     -4.6215619
H      -1.3841003      0.4735471     -5.7305069
H       4.3303191     -0.2210557      2.6531518
C       4.1659480     -0.3417714     -0.5980072
C       4.0082512      0.7191779     -1.5123963
C       3.4045262      1.4724605      0.6285313
C       3.6516082     -0.6323868      1.8904577
C       3.3307501      1.8429205     -0.8460062
N       3.6837505      0.1465822      0.6817424
O       3.2062403      2.2013858      1.5853584
O       4.5993686     -1.4905949     -0.6872773
H       4.3490707      0.6796417     -2.5431596
H       3.9699846     -1.6486727      1.6261304
H       3.6795267      2.8676560     -1.0335901
H       2.6275323     -0.6525309      2.2932156
          85

O       0.4622337      2.5715600      0.7639950
C       1.0402476      2.8495108     -0.2559548
O       1.2268268      4.1022944     -0.6757927
C       0.8906934      5.1497087      0.2438694
C       2.0238612      5.3539318      1.2295079
C       1.7048761      1.8664641     -1.1766625
N       1.2291578      0.5392990     -1.0235315
C       1.6409849     -0.2302774     -1.9805960
C       1.6019333     -1.6983833     -1.9524295
C       1.6122622     -2.4090474     -0.7460763
C       1.5151800     -3.7985073     -0.7487424
C       1.4469936     -4.4951185     -1.9562270
C       1.4987072     -3.7975844     -3.1663500
C       1.5828204     -2.4078543     -3.1618537
H       0.7213791      6.0364612     -0.3786102
H      -0.0451871      4.8866353      0.7544935
H       1.7583658      6.1345906      1.9558626
H       2.9364200      5.6646280      0.7012212
H       2.2348691      4.4137449      1.7571470
H       0.6062209      0.0657685      0.4125645
H       1.6490090      2.2446320     -2.2097458
H       1.9235971      0.2084805     -2.9488858
H       1.7113063     -1.8579844      0.1884868
H       1.5034757     -4.3411393      0.1982871
H       1.3714579     -5.5839080     -1.9562269
H       1.4701756     -4.3398361     -4.1130236
H       1.6119668     -1.8569705     -4.1051724
H      -3.6465401      0.1009402      4.5277880
C      -3.0917687      0.4761250      3.6735776
H      -4.2561358      0.1197255      1.8020150
H      -0.9653013      0.2743930      5.5309716
C      -3.3930695      0.4903025      2.3474527
H      -1.7117633      1.8951411      5.7308388
C      -1.1295897      1.2511864      5.0622635
N      -1.8511796      1.0693089      3.8084141
H      -5.5931850     -3.1621706     -1.2521961
H      -5.2440526     -5.2168224      0.1300401
C      -4.7135102     -3.2403656     -0.6110663
C      -4.5191303     -4.4028417      0.1735542
N      -2.3316306      1.0971372      1.7032244
H      -0.1655543      1.7210812      4.8437421
C      -1.4086778      1.4306189      2.6091833
C      -3.8040712     -2.2078689     -0.5743410
C      -3.4184156     -4.4943426      0.9930407
H      -2.5535011      3.3369826      0.2819958
H      -3.9685697     -1.3197239     -1.1863862
H      -3.2595245     -5.3796654      1.6129470
C      -2.1809680      1.2015832      0.2751813
C      -2.3351218      2.4667250     -0.3375519
C      -2.6446178     -2.2808604      0.2503214
C      -2.4668352     -3.4422294      1.0585983
H      -0.4456231      1.8767530      2.3656289
C      -1.6831714     -1.2214553      0.3134555
C      -1.3471740     -3.5057553      1.9361926
C      -1.8954738      0.0513838     -0.4309490
C      -2.1904684      2.5714543     -1.6955854
H      -1.2163536     -4.3931309      2.5593959
H      -2.2925904      3.5397480     -2.1887467
C      -0.4473896     -2.4783711      1.9970175
C      -0.5956017     -1.3217084      1.1755707
C      -1.7782025      0.1474474     -1.8551624
C      -1.9147792      1.4191306     -2.4853148
O       0.3296708     -0.3655513      1.3073992
H       0.4212246     -2.5170838      2.6567650
C      -1.4931742     -0.9900419     -2.6575473
C      -1.7642320      1.5125797     -3.8958892
H      -1.3567079     -1.9591481     -2.1744151
H      -1.8665510      2.4909527     -4.3696577
C      -1.3606379     -0.8694706     -4.0203740
C      -1.4955438      0.3936653     -4.6476422
H      -1.1342676     -1.7514138     -4.6216644
H      -1.3821590      0.4752239     -5.7296699
H       4.3549988     -0.2212798      2.6480732
C       4.1737449     -0.3412448     -0.6000951
C       4.0055312      0.7167082     -1.5128219
C       3.3973625      1.4650171      0.6318151
C       3.6730932     -0.6367591      1.8904642
C       3.3242110      1.8394668     -0.8435888
N       3.6901602      0.1429631      0.6822522
O       3.1898308      2.1907418      1.5895583
O       4.6167630     -1.4867719     -0.6888148
H       4.3400975      0.6791381     -2.5455179
H       3.9962036     -1.6506251      1.6228133
H       3.6811532      2.8626003     -1.0241012
H       2.6524767     -0.6635606      2.3016008
          85

O       0.4516287      2.5768258      0.7513912
C       1.0431625      2.8532972     -0.2610821
O       1.2406439      4.1055449     -0.6773803
C       0.8926127      5.1539213      0.2366578
C       2.0153568      5.3632082      1.2330760
C       1.7085164      1.8676597     -1.1786357
N       1.2300376      0.5416069     -1.0211139
C       1.6361383     -0.2302653     -1.9777609
C       1.5959983     -1.6980930     -1.9486069
C       1.6119536     -2.4102451     -0.7432342
C       1.5194712     -3.8001093     -0.7484650
C       1.4495672     -4.4946537     -1.9570681
C       1.4938975     -3.7949517     -3.1662187
C       1.5737698     -2.4052152     -3.1592537
H       0.7269131      6.0391060     -0.3890350
H      -0.0474188      4.8890532      0.7385631
H       1.7382728      6.1405465      1.9586608
H       2.9310751      5.6804930      0.7142916
H       2.2265556      4.4230296      1.7609656
H       0.6048287      0.0679749      0.4150409
H       1.6400845      2.2433586     -2.2176936
H       1.9202191      0.2067675     -2.9464724
H       1.7128673     -1.8602939      0.1918869
H       1.5131507     -4.3447795      0.1974312
H       1.3783334     -5.5837172     -1.9587325
H       1.4636820     -4.3355852     -4.1137511
H       1.5984103     -1.8522248     -4.1014237
H      -3.6454150      0.1014340      4.5294343
C      -3.0915313      0.4763499      3.6745276
H      -4.2586343      0.1212192      1.8044138
H      -0.9628437      0.2721069      5.5288508
C      -3.3945966      0.4910276      2.3488319
H      -1.7087318      1.8928728      5.7307136
C      -1.1273518      1.2493106      5.0610716
N      -1.8503041      1.0685600      3.8078559
H      -5.5942906     -3.1634196     -1.2513408
H      -5.2437261     -5.2184167      0.1300364
C      -4.7144089     -3.2413906     -0.6104657
C      -4.5192420     -4.4040525      0.1736700
N      -2.3335552      1.0972348      1.7034018
H      -0.1634135      1.7191358      4.8419771
C      -1.4090716      1.4298854      2.6081098
C      -3.8055178     -2.2083863     -0.5736107
C      -3.4182929     -4.4951882      0.9928723
H      -2.5591526      3.3365322      0.2823833
H      -3.9707309     -1.3201176     -1.1853001
H      -3.2587334     -5.3806061      1.6124695
C      -2.1843400      1.2016085      0.2752703
C      -2.3398514      2.4666221     -0.3373029
C      -2.6457536     -2.2810129      0.2506770
C      -2.4672745     -3.4425800      1.0585091
H      -0.4459998      1.8753809      2.3633076
C      -1.6846677     -1.2211281      0.3137722
C      -1.3473687     -3.5059319      1.9357824
C      -1.8979756      0.0515878     -0.4307233
C      -2.1940970      2.5718211     -1.6951192
H      -1.2159597     -4.3934719      2.5586218
H      -2.2965286      3.5401293     -2.1881993
C      -0.4481282     -2.4781372      1.9967642
C      -0.5969082     -1.3211937      1.1757811
C      -1.7808433      0.1479227     -1.8549572
C      -1.9166857      1.4198831     -2.4847800
O       0.3283474     -0.3650359      1.3086269
H       0.4206372     -2.5165816      2.6563156
C      -1.4966462     -0.9894660     -2.6577359
C      -1.7641149      1.5139798     -3.8950838
H      -1.3617679     -1.9589868     -2.1750269
H      -1.8651622      2.4926756     -4.3684583
C      -1.3629477     -0.8683828     -4.0204134
C      -1.4954112      0.3952664     -4.6471208
H      -1.1373868     -1.7503306     -4.6219925
H      -1.3805162      0.4773150     -5.7289494
H       4.3752667     -0.2230889      2.6456820
C       4.1847809     -0.3413785     -0.6017447
C       4.0081581      0.7166938     -1.5120598
C       3.3939123      1.4564241      0.6349742
C       3.6933529     -0.6425881      1.8902513
C       3.3231268      1.8361449     -0.8394741
N       3.7005789      0.1382211      0.6829577
O       3.1717167      2.1776299      1.5931551
O       4.6350268     -1.4842991     -0.6917445
H       4.3399717      0.6822612     -2.5459239
H       4.0222551     -1.6540395      1.6205920
H       3.6841085      2.8600233     -1.0126404
H       2.6746052     -0.6761924      2.3057342
          85

O       0.4402015      2.5828325      0.7394315
C       1.0449753      2.8569914     -0.2660599
O       1.2544117      4.1088187     -0.6792987
C       0.8957068      5.1587399      0.2287087
C       2.0070060      5.3703901      1.2372860
C       1.7103184      1.8679786     -1.1783434
N       1.2300605      0.5433891     -1.0203544
C       1.6339492     -0.2304379     -1.9761023
C       1.5922556     -1.6980080     -1.9460856
C       1.6134733     -2.4109682     -0.7412460
C       1.5241674     -3.8011211     -0.7476790
C       1.4511816     -4.4947052     -1.9566693
C       1.4883976     -3.7938378     -3.1654008
C       1.5657104     -2.4040994     -3.1573215
H       0.7365330      6.0428529     -0.4002381
H      -0.0497164      4.8941824      0.7205790
H       1.7200287      6.1458161      1.9610378
H       2.9274360      5.6908105      0.7289237
H       2.2147625      4.4299235      1.7662788
H       0.6019209      0.0699736      0.4168845
H       1.6738948      2.2409949     -2.2095397
H       1.9202554      0.2052779     -2.9447391
H       1.7168003     -1.8614868      0.1940133
H       1.5230517     -4.3468668      0.1976229
H       1.3829984     -5.5839671     -1.9590201
H       1.4553231     -4.3336465     -4.1133101
H       1.5859474     -1.8500326     -4.0989392
H      -3.6436422      0.1019257      4.5313715
C      -3.0908906      0.4766905      3.6756638
H      -4.2611709      0.1228608      1.8072777
H      -0.9595301      0.2698677      5.5263183
C      -3.3960563      0.4919469      2.3504713
H      -1.7042386      1.8908920      5.7304163
C      -1.1241648      1.2475016      5.0594744
N      -1.8490273      1.0680176      3.8071917
H      -5.5954527     -3.1645065     -1.2503841
H      -5.2434039     -5.2199416      0.1299947
C      -4.7153361     -3.2423019     -0.6098094
C      -4.5193470     -4.4052033      0.1737627
N      -2.3356248      1.0976316      1.7035981
H      -0.1602706      1.7169357      4.8393448
C      -1.4094156      1.4295067      2.6068360
C      -3.8069695     -2.2088240     -0.5728130
C      -3.4181230     -4.4960467      0.9926157
H      -2.5658923      3.3360890      0.2825302
H      -3.9728764     -1.3204060     -1.1841000
H      -3.2578829     -5.3816069      1.6118345
C      -2.1880507      1.2017680      0.2753222
C      -2.3454052      2.4665407     -0.3372039
C      -2.6468748     -2.2811087      0.2510696
C      -2.4676646     -3.4429277      1.0583946
H      -0.4464431      1.8744743      2.3603591
C      -1.6861908     -1.2207077      0.3141129
C      -1.3475473     -3.5060710      1.9353807
C      -1.9005575      0.0519359     -0.4304681
C      -2.1987315      2.5721389     -1.6948110
H      -1.2155365     -4.3937555      2.5578833
H      -2.3017664      3.5403986     -2.1878521
C      -0.4488590     -2.4778316      1.9965205
C      -0.5982072     -1.3206908      1.1759298
C      -1.7836019      0.1484939     -1.8547580
C      -1.9191923      1.4206447     -2.4843241
O       0.3270856     -0.3644497      1.3095198
H       0.4200193     -2.5160076      2.6559255
C      -1.4999723     -0.9887255     -2.6579285
C      -1.7647546      1.5153942     -3.8943617
H      -1.3662381     -1.9586018     -2.1756353
H      -1.8648728      2.4943809     -4.3673403
C      -1.3653994     -0.8671569     -4.0204969
C      -1.4958052      0.3969355     -4.6466803
H      -1.1404828     -1.7490785     -4.6223504
H      -1.3795343      0.4794732     -5.7283275
H       4.3925905     -0.2272756      2.6440535
C       4.1952157     -0.3404691     -0.6027926
C       4.0113364      0.7188394     -1.5105630
C       3.3889116      1.4486776      0.6384049
C       3.7114758     -0.6497234      1.8894473
C       3.3259658      1.8343359     -0.8346180
N       3.7103934      0.1336628      0.6835403
O       3.1532355      2.1634837      1.5984303
O       4.6531281     -1.4801929     -0.6958070
H       4.3401978      0.6876033     -2.5455239
H       4.0463143     -1.6584594      1.6169587
H       3.6820802      2.8586287     -1.0033044
H       2.6940225     -0.6904352      2.3078493
          85

O       0.4357045      2.5854070      0.7348005
C       1.0443812      2.8586722     -0.2683685
O       1.2579630      4.1101965     -0.6805405
C       0.8964414      5.1608418      0.2255325
C       2.0036232      5.3726823      1.2386649
C       1.7105386      1.8683801     -1.1791059
N       1.2292097      0.5438300     -1.0202473
C       1.6320713     -0.2304373     -1.9756895
C       1.5906734     -1.6980445     -1.9452029
C       1.6144038     -2.4111338     -0.7404890
C       1.5263659     -3.8014060     -0.7472303
C       1.4517427     -4.4946992     -1.9563005
C       1.4859837     -3.7935359     -3.1649544
C       1.5623593     -2.4037884     -3.1565833
H       0.7402996      6.0447138     -0.4045289
H      -0.0511047      4.8970852      0.7137435
H       1.7129470      6.1472170      1.9619097
H       2.9258865      5.6943592      0.7344148
H       2.2099189      4.4319609      1.7678730
H       0.6010172      0.0705853      0.4175677
H       1.6743158      2.2403481     -2.2104268
H       1.9186368      0.2047009     -2.9445250
H       1.7187033     -1.8616990      0.1947416
H       1.5274836     -4.3474921      0.1978826
H       1.3845711     -5.5840227     -1.9587828
H       1.4515383     -4.3331115     -4.1129454
H       1.5806584     -1.8493771     -4.0980345
H      -3.6427102      0.1021687      4.5320391
C      -3.0905475      0.4768495      3.6761324
H      -4.2620653      0.1235761      1.8085322
H      -0.9580696      0.2690396      5.5252270
C      -3.3966150      0.4923486      2.3511343
H      -1.7021295      1.8902522      5.7302010
C      -1.1226947      1.2468387      5.0587272
N      -1.8484356      1.0678606      3.8068830
H      -5.5958869     -3.1648765     -1.2499864
H      -5.2432626     -5.2204931      0.1299825
C      -4.7156698     -3.2426182     -0.6095431
C      -4.5193615     -4.4056189      0.1737970
N      -2.3364629      1.0978655      1.7036514
H      -0.1587888      1.7160077      4.8380760
C      -1.4095456      1.4294358      2.6062793
C      -3.8075030     -2.2089607     -0.5724948
C      -3.4180173     -4.4963649      0.9924924
H      -2.5688126      3.3359325      0.2825503
H      -3.9737022     -1.3204776     -1.1836075
H      -3.2575061     -5.3819852      1.6115546
C      -2.1895987      1.2018768      0.2753162
C      -2.3477985      2.4665403     -0.3372052
C      -2.6472740     -2.2811206      0.2512161
C      -2.4677745     -3.4430519      1.0583247
H      -0.4466316      1.8741866      2.3591943
C      -1.6867637     -1.2204991      0.3142597
C      -1.3475810     -3.5061373      1.9352029
C      -1.9016184      0.0521124     -0.4303729
C      -2.2007639      2.5723127     -1.6947315
H      -1.2153313     -4.3938986      2.5575437
H      -2.3041030      3.5405429     -2.1877650
C      -0.4491361     -2.4777036      1.9964515
C      -0.5987150     -1.3204542      1.1760439
C      -1.7848191      0.1487655     -1.8546988
C      -1.9203255      1.4209920     -2.4841696
O       0.3265497     -0.3641408      1.3099581
H       0.4197732     -2.5157780      2.6558164
C      -1.5013916     -0.9883749     -2.6580387
C      -1.7650851      1.5160245     -3.8940999
H      -1.3681186     -1.9583993     -2.1759218
H      -1.8648395      2.4951301     -4.3669134
C      -1.3664280     -0.8665933     -4.0205578
C      -1.4960040      0.3976814     -4.6465349
H      -1.1417618     -1.7484988     -4.6225268
H      -1.3791534      0.4804186     -5.7281045
H       4.3988407     -0.2298005      2.6441720
C       4.1995960     -0.3401881     -0.6036768
C       4.0110389      0.7190749     -1.5101940
C       3.3864851      1.4448619      0.6400103
C       3.7188413     -0.6531304      1.8890754
C       3.3230685      1.8329361     -0.8330529
N       3.7155651      0.1316746      0.6841075
O       3.1456687      2.1572527      1.6006661
O       4.6605221     -1.4787335     -0.6978702
H       4.3389370      0.6896626     -2.5455267
H       4.0562507     -1.6607037      1.6154182
H       3.6810251      2.8574052     -0.9984666
H       2.7015547     -0.6967456      2.3077178
