          85

O       1.1791483      0.8124467     -2.3744779
C       1.6629529     -0.3100296     -2.3979820
O       2.2062542     -0.8138796     -3.5313299
C       2.2706320      0.0675883     -4.6434860
C       2.9450443     -0.6704347     -5.7777260
C       1.7919701     -1.2278821     -1.3055147
N       1.3738366     -0.9195142     -0.0697104
C       1.5681778     -1.7930032      0.8854576
C       1.2076768     -1.5878980      2.2841973
C       1.0236407     -0.3131604      2.8456535
C       0.6207825     -0.1721391      4.1704721
C       0.4254163     -1.2960751      4.9758877
C       0.6528909     -2.5683395      4.4441700
C       1.0442340     -2.7102145      3.1160008
H       1.2527354      0.3874068     -4.9185434
H       2.8303708      0.9686949     -4.3501420
H       3.0089993     -0.0266335     -6.6653759
H       2.3773190     -1.5740015     -6.0413901
H       3.9623891     -0.9710095     -5.4903373
H       0.5439498      0.5547224      0.0877278
H       2.1392670     -2.2412418     -1.5387082
H       1.9068665     -2.8052428      0.6162268
H       1.2098435      0.5666568      2.2300085
H       0.4665101      0.8277238      4.5814395
H       0.1107879     -1.1815870      6.0146499
H       0.5191586     -3.4542800      5.0681289
H       1.2081086     -3.7069497      2.6984532
H      -3.7618794      4.2238348     -1.3733115
C      -3.0802405      3.3939001     -1.5313605
H      -4.1616712      1.4632467     -1.2329277
H      -0.0461071      4.7105349     -2.2653744
C      -3.2784439      2.0499863     -1.4688361
H      -1.1726032      5.4431986     -1.0818843
C      -1.0987927      4.8815286     -2.0199680
N      -1.7523288      3.5882492     -1.8619997
H      -6.1518328     -1.5067050      1.7133422
H      -6.4798076      0.0396644      3.6512359
C      -5.3750471     -0.7830338      1.9661358
C      -5.5634955      0.0937113      3.0617922
N      -2.0674475      1.4550039     -1.7679751
H      -1.5809794      5.4397553     -2.8302988
C      -1.1588405      2.4068309     -1.9938063
C      -4.2216857     -0.7332846      1.2164905
C      -4.5904406      1.0153715      3.3699199
H      -1.5462817     -0.1115955     -3.8510872
H      -4.0926739     -1.4175319      0.3765791
H      -4.7249673      1.7070725      4.2046281
C      -1.7909209      0.0446478     -1.7028703
C      -1.5416569     -0.6553134     -2.9059390
C      -3.1875489      0.1980803      1.5214031
C      -3.3938570      1.0968319      2.6093527
H      -0.1070877      2.1982665     -2.2006437
C      -1.9812442      0.2808045      0.7526162
C      -2.4021702      2.0792936      2.8890662
C      -1.7863717     -0.5602706     -0.4623450
C      -1.2840006     -1.9994265     -2.8520919
H      -2.5644603      2.7700595      3.7192693
H      -1.0715223     -2.5572414     -3.7657922
C      -1.2653362      2.1579828      2.1345950
C      -1.0343002      1.2530143      1.0577432
C      -1.5573490     -1.9734402     -0.4034516
C      -1.2975251     -2.6908829     -1.6075194
O       0.0977490      1.4274892      0.3638101
H      -0.4925481      2.9007529      2.3396507
C      -1.5462865     -2.6762802      0.8315750
C      -1.0389059     -4.0865658     -1.5388562
H      -1.7095543     -2.1226389      1.7577845
H      -0.8333870     -4.6266563     -2.4652954
C      -1.3050067     -4.0291161      0.8654826
C      -1.0455708     -4.7424107     -0.3306458
H      -1.2950936     -4.5533498      1.8224436
H      -0.8465630     -5.8144132     -0.2887477
H       4.0395115      2.9354178      0.7322515
C       4.0351276     -0.2476163      1.4295308
C       4.3497391     -1.3523874      0.4970331
C       3.9449662      0.5760162     -0.7101214
C       3.3668843      2.1631054      1.1306660
C       4.2733138     -0.8791830     -0.7711878
N       3.7398661      0.8634357      0.6303262
O       3.8983467      1.3932712     -1.6051420
O       4.0589013     -0.2265705      2.6420185
H       4.6330670     -2.3420985      0.8468447
H       3.4489340      2.1305085      2.2240088
H       4.5327784     -1.3655881     -1.7097281
H       2.3310432      2.3988940      0.8452027
          85

O       1.1788543      0.8076461     -2.3765863
C       1.6712510     -0.3106168     -2.3975215
O       2.2214549     -0.8121538     -3.5282022
C       2.2729597      0.0643505     -4.6447651
C       2.9465515     -0.6735026     -5.7795542
C       1.8048268     -1.2255932     -1.3024351
N       1.3790941     -0.9188870     -0.0688637
C       1.5760494     -1.7914053      0.8866693
C       1.2122956     -1.5870876      2.2848335
C       1.0279834     -0.3124742      2.8463264
C       0.6217332     -0.1718735      4.1702058
C       0.4229114     -1.2961796      4.9742103
C       0.6505082     -2.5684009      4.4423959
C       1.0456558     -2.7098009      3.1153083
H       1.2511492      0.3746676     -4.9151285
H       2.8269084      0.9711957     -4.3587263
H       2.9989211     -0.0337850     -6.6706789
H       2.3851141     -1.5831582     -6.0349190
H       3.9682119     -0.9636915     -5.4976270
H       0.5459264      0.5537730      0.0884588
H       2.1532101     -2.2390691     -1.5347744
H       1.9169126     -2.8030093      0.6181014
H       1.2161662      0.5674364      2.2313562
H       0.4672904      0.8278372      4.5814852
H       0.1054142     -1.1820226      6.0121444
H       0.5139558     -3.4545619      5.0654037
H       1.2097654     -3.7063911      2.6975096
H      -3.7613675      4.2237100     -1.3731384
C      -3.0798622      3.3938729     -1.5312029
H      -4.1612502      1.4632709     -1.2328499
H      -0.0460355      4.7107338     -2.2659570
C      -3.2781113      2.0499392     -1.4687144
H      -1.1716347      5.4427260     -1.0811984
C      -1.0985294      4.8815707     -2.0196431
N      -1.7519601      3.5882033     -1.8618765
H      -6.1513382     -1.5058836      1.7135487
H      -6.4789487      0.0406135      3.6514091
C      -5.3744491     -0.7822781      1.9662166
C      -5.5626974      0.0945372      3.0618590
N      -2.0671281      1.4549837     -1.7679215
H      -1.5813628      5.4402005     -2.8293049
C      -1.1584765      2.4067630     -1.9937164
C      -4.2211299     -0.7327275      1.2164538
C      -4.5894945      1.0161006      3.3698233
H      -1.5456376     -0.1112148     -3.8510872
H      -4.0922341     -1.4170939      0.3766018
H      -4.7238325      1.7078541      4.2045192
C      -1.7903270      0.0447256     -1.7028827
C      -1.5405307     -0.6549812     -2.9059740
C      -3.1867874      0.1984703      1.5212565
C      -3.3929370      1.0973189      2.6091672
H      -0.1067374      2.1983311     -2.2005291
C      -1.9803136      0.2808396      0.7526398
C      -2.4009442      2.0794746      2.8888853
C      -1.7853132     -0.5601350     -0.4623622
C      -1.2819263     -1.9988992     -2.8521991
H      -2.5631425      2.7704084      3.7189701
H      -1.0693296     -2.5566366     -3.7659242
C      -1.2638537      2.1576128      2.1347165
C      -1.0327891      1.2524465      1.0580055
C      -1.5552668     -1.9730857     -0.4035240
C      -1.2949650     -2.6903358     -1.6076246
O       0.0994993      1.4264791      0.3643241
H      -0.4908436      2.9001130      2.3399292
C      -1.5442321     -2.6759699      0.8314681
C      -1.0360310     -4.0859621     -1.5390448
H      -1.7078613     -2.1224271      1.7576844
H      -0.8302220     -4.6259374     -2.4654859
C      -1.3028574     -4.0287817      0.8652318
C      -1.0430792     -4.7419354     -0.3309249
H      -1.2932044     -4.5531713      1.8221094
H      -0.8440662     -5.8139385     -0.2890820
H       4.0484751      2.9381014      0.7423553
C       4.0382548     -0.2463400      1.4321648
C       4.3471851     -1.3491197      0.4970533
C       3.9420743      0.5825904     -0.7054969
C       3.3744205      2.1668765      1.1407198
C       4.2659708     -0.8732346     -0.7709991
N       3.7413516      0.8671390      0.6360164
O       3.8941844      1.4020107     -1.5985728
O       4.0664824     -0.2265035      2.6447900
H       4.6329098     -2.3392282      0.8434836
H       3.4594959      2.1312129      2.2337348
H       4.5276795     -1.3562148     -1.7103957
H       2.3384307      2.4070323      0.8587162
          85

O       1.1743053      0.8004483     -2.3817641
C       1.6781193     -0.3118724     -2.3991321
O       2.2379183     -0.8112734     -3.5249490
C       2.2746453      0.0589538     -4.6475520
C       2.9466658     -0.6793646     -5.7827839
C       1.8189318     -1.2242441     -1.2994859
N       1.3807290     -0.9165360     -0.0684683
C       1.5811149     -1.7881400      0.8867215
C       1.2150337     -1.5852585      2.2849023
C       1.0322941     -0.3109850      2.8471477
C       0.6241339     -0.1714522      4.1706353
C       0.4215798     -1.2966182      4.9724377
C       0.6473619     -2.5686751      4.4394868
C       1.0449550     -2.7089050      3.1130243
H       1.2481491      0.3585245     -4.9122260
H       2.8224471      0.9723148     -4.3702117
H       2.9866484     -0.0439746     -6.6776847
H       2.3913360     -1.5953091     -6.0290618
H       3.9729898     -0.9589590     -5.5069714
H       0.5470315      0.5529053      0.0891288
H       2.1489726     -2.2379301     -1.5329346
H       1.9235424     -2.7991472      0.6183678
H       1.2226046      0.5692143      2.2331195
H       0.4709213      0.8278720      4.5832414
H       0.1024341     -1.1832644      6.0099557
H       0.5077310     -3.4553467      5.0610473
H       1.2080827     -3.7051219      2.6939986
H      -3.7623543      4.2240594     -1.3713105
C      -3.0809537      3.3942572     -1.5300123
H      -4.1620619      1.4635623     -1.2311829
H      -0.0479991      4.7117485     -2.2669719
C      -3.2791219      2.0503097     -1.4676039
H      -1.1732082      5.4435704     -1.0817193
C      -1.1004071      4.8822550     -2.0200795
N      -1.7533354      3.5887058     -1.8616346
H      -6.1516453     -1.5051430      1.7147292
H      -6.4784815      0.0414219      3.6526816
C      -5.3746498     -0.7815376      1.9670721
C      -5.5624646      0.0953074      3.0627655
N      -2.0683454      1.4554420     -1.7677994
H      -1.5839454      5.4404725     -2.8295995
C      -1.1598875      2.4073151     -1.9940176
C      -4.2216000     -0.7320460      1.2168479
C      -4.5891004      1.0168553      3.3702954
H      -1.5468928     -0.1103538     -3.8512672
H      -4.0930650     -1.4164839      0.3769821
H      -4.7230717      1.7086416      4.2050231
C      -1.7914210      0.0452446     -1.7030323
C      -1.5411450     -0.6541900     -2.9061988
C      -3.1870127      0.1990321      1.5212942
C      -3.3927790      1.0979197      2.6092408
H      -0.1083293      2.1996035     -2.2016459
C      -1.9805526      0.2811437      0.7525587
C      -2.4004230      2.0797797      2.8887521
C      -1.7859267     -0.5596574     -0.4625795
C      -1.2813283     -1.9978679     -2.8526002
H      -2.5623723      2.7708582      3.7187726
H      -1.0685822     -2.5554638     -3.7663845
C      -1.2632277      2.1573807      2.1346788
C      -1.0322666      1.2521406      1.0579474
C      -1.5549486     -1.9724200     -0.4039209
C      -1.2936792     -2.6893396     -1.6080211
O       0.1001035      1.4258626      0.3644277
H      -0.4899610      2.8996215      2.3398760
C      -1.5441901     -2.6754477      0.8309796
C      -1.0337031     -4.0847873     -1.5395220
H      -1.7088526     -2.1221703      1.7571706
H      -0.8271011     -4.6245086     -2.4659315
C      -1.3021181     -4.0281225      0.8645932
C      -1.0411299     -4.7409398     -0.3315236
H      -1.2929755     -4.5527645      1.8213355
H      -0.8415364     -5.8128262     -0.2897053
H       4.0670906      2.9353721      0.7531634
C       4.0364217     -0.2512077      1.4319671
C       4.3286449     -1.3520461      0.4935043
C       3.9284143      0.5861711     -0.7024758
C       3.3881045      2.1687452      1.1522850
C       4.2358622     -0.8733565     -0.7762434
N       3.7389089      0.8675983      0.6404097
O       3.8804988      1.4090891     -1.5928415
O       4.0748302     -0.2311576      2.6450393
H       4.6128956     -2.3443019      0.8355238
H       3.4790445      2.1277053      2.2446378
H       4.5061205     -1.3477818     -1.7150239
H       2.3528204      2.4202951      0.8770355
          85

O       1.1718189      0.7920887     -2.3839249
C       1.6877913     -0.3137755     -2.3992420
O       2.2529626     -0.8105956     -3.5224333
C       2.2748570      0.0542504     -4.6501705
C       2.9461845     -0.6834855     -5.7860938
C       1.8394365     -1.2191074     -1.2936162
N       1.3847956     -0.9140556     -0.0683781
C       1.5878701     -1.7848264      0.8873023
C       1.2172851     -1.5834391      2.2849150
C       1.0358293     -0.3095701      2.8479493
C       0.6264443     -0.1712375      4.1712893
C       0.4211072     -1.2973650      4.9709373
C       0.6447335     -2.5692347      4.4366304
C       1.0439396     -2.7081300      3.1105707
H       1.2439235      0.3428192     -4.9091113
H       2.8159169      0.9738328     -4.3804728
H       2.9751529     -0.0515548     -6.6838192
H       2.3971157     -1.6050807     -6.0250889
H       3.9765236     -0.9530813     -5.5155435
H       0.5477904      0.5522998      0.0890302
H       2.1685950     -2.2378674     -1.5256432
H       1.9303345     -2.7957080      0.6194503
H       1.2280953      0.5709357      2.2348301
H       0.4745328      0.8276188      4.5854397
H       0.1011879     -1.1849252      6.0083199
H       0.5025143     -3.4564181      5.0568304
H       1.2061768     -3.7038645      2.6901054
H      -3.7633244      4.2244163     -1.3695213
C      -3.0820445      3.3946359     -1.5288660
H      -4.1628940      1.4638721     -1.2295125
H      -0.0499625      4.7128560     -2.2679546
C      -3.2801517      2.0506833     -1.4665198
H      -1.1748113      5.4443598     -1.0821769
C      -1.1023011      4.8829592     -2.0205058
N      -1.7547023      3.5891834     -1.8614861
H      -6.1522122     -1.5047484      1.7160310
H      -6.4782272      0.0419166      3.6540507
C      -5.3751227     -0.7811098      1.9679897
C      -5.5624742      0.0957891      3.0637249
N      -2.0696204      1.4558736     -1.7677582
H      -1.5865522      5.4408264     -2.8298344
C      -1.1613285      2.4077926     -1.9944551
C      -4.2223934     -0.7316290      1.2172426
C      -4.5889850      1.0173771      3.3707655
H      -1.5483570     -0.1096643     -3.8514993
H      -4.0942215     -1.4161241      0.3773526
H      -4.7225997      1.7092051      4.2055160
C      -1.7926531      0.0457115     -1.7032462
C      -1.5419306     -0.6535053     -2.9064371
C      -3.1876049      0.1993952      1.5212858
C      -3.3929328      1.0983329      2.6092588
H      -0.1099329      2.2006738     -2.2029115
C      -1.9812334      0.2813452      0.7523671
C      -2.4002295      2.0799490      2.8884547
C      -1.7868648     -0.5592499     -0.4628593
C      -1.2811012     -1.9969877     -2.8529774
H      -2.5618858      2.7711752      3.7184108
H      -1.0684049     -2.5544867     -3.7668372
C      -1.2630061      2.1571334      2.1343440
C      -1.0322257      1.2517596      1.0576328
C      -1.5549741     -1.9717817     -0.4043191
C      -1.2927079     -2.6884208     -1.6083909
O       0.1000735      1.4251624      0.3639611
H      -0.4895431      2.8991915      2.3394613
C      -1.5448643     -2.6749665      0.8305063
C      -1.0319873     -4.0837673     -1.5399121
H      -1.7107049     -2.1219553      1.7566377
H      -0.8246475     -4.6232945     -2.4662649
C      -1.3022738     -4.0275169      0.8640003
C      -1.0400469     -4.7400734     -0.3320392
H      -1.2938677     -4.5524232      1.8206037
H      -0.8400823     -5.8118819     -0.2901945
H       4.0846835      2.9322073      0.7620000
C       4.0340357     -0.2553927      1.4312850
C       4.3079638     -1.3554477      0.4903054
C       3.9160650      0.5889153     -0.7008383
C       3.4007686      2.1700069      1.1611640
C       4.2050519     -0.8734174     -0.7797218
N       3.7372577      0.8678550      0.6434611
O       3.8695400      1.4148558     -1.5892582
O       4.0826481     -0.2341168      2.6443842
H       4.5976375     -2.3476401      0.8266630
H       3.4959893      2.1241347      2.2529423
H       4.4794537     -1.3449421     -1.7211963
H       2.3667783      2.4322373      0.8913378
          85

O       1.1705451      0.7838930     -2.3839423
C       1.6990267     -0.3147392     -2.3991487
O       2.2649679     -0.8102931     -3.5205766
C       2.2743174      0.0503483     -4.6524989
C       2.9454392     -0.6863106     -5.7890073
C       1.8695203     -1.2143825     -1.2865756
N       1.3912317     -0.9102021     -0.0667889
C       1.5942479     -1.7808614      0.8878044
C       1.2183158     -1.5816789      2.2848408
C       1.0377497     -0.3082308      2.8482390
C       0.6283743     -0.1710768      4.1718026
C       0.4220478     -1.2982021      4.9696709
C       0.6428804     -2.5699304      4.4338540
C       1.0421992     -2.7075146      3.1077158
H       1.2396711      0.3295478     -4.9063662
H       2.8095612      0.9748629     -4.3882707
H       2.9673005     -0.0559855     -6.6880311
H       2.4007312     -1.6114678     -6.0240787
H       3.9783200     -0.9492336     -5.5217568
H       0.5491502      0.5520529      0.0893527
H       2.1711410     -2.2369489     -1.5220379
H       1.9395542     -2.7908902      0.6208337
H       1.2315938      0.5724419      2.2358185
H       0.4777811      0.8272745      4.5875722
H       0.1029448     -1.1866602      6.0074219
H       0.4989972     -3.4575495      5.0529759
H       1.2035996     -3.7027232      2.6857362
H      -3.7642408      4.2247767     -1.3679376
C      -3.0830433      3.3950139     -1.5277789
H      -4.1636848      1.4642028     -1.2280158
H      -0.0519113      4.7141945     -2.2689426
C      -3.2811014      2.0510669     -1.4655022
H      -1.1765191      5.4453572     -1.0827761
C      -1.1042212      4.8837491     -2.0210239
N      -1.7559448      3.5896639     -1.8612688
H      -6.1528167     -1.5046499      1.7172776
H      -6.4781300      0.0421983      3.6552732
C      -5.3756676     -0.7809445      1.9688553
C      -5.5626150      0.0960544      3.0645800
N      -2.0707909      1.4563018     -1.7676718
H      -1.5892976      5.4410922     -2.8302126
C      -1.1626494      2.4082826     -1.9947523
C      -4.2232458     -0.7314440      1.2176194
C      -4.5890448      1.0177254      3.3711500
H      -1.5501209     -0.1091805     -3.8517598
H      -4.0954318     -1.4159968      0.3777099
H      -4.7223696      1.7096164      4.2058921
C      -1.7939519      0.0461487     -1.7034377
C      -1.5429703     -0.6529332     -2.9066435
C      -3.1883285      0.1995860      1.5212689
C      -3.3932335      1.0985915      2.6092320
H      -0.1114208      2.2021501     -2.2040642
C      -1.9820676      0.2814575      0.7521461
C      -2.4002023      2.0800070      2.8880605
C      -1.7879856     -0.5589073     -0.4631252
C      -1.2814442     -1.9963122     -2.8533162
H      -2.5615750      2.7714003      3.7179310
H      -1.0690492     -2.5537738     -3.7672701
C      -1.2629867      2.1568406      2.1338624
C      -1.0324008      1.2513412      1.0571876
C      -1.5554569     -1.9712369     -0.4046576
C      -1.2922941     -2.6876751     -1.6086898
O       0.0997382      1.4245617      0.3632020
H      -0.4893762      2.8987772      2.3388427
C      -1.5462115     -2.6745618      0.8301287
C      -1.0308477     -4.0829534     -1.5401576
H      -1.7134656     -2.1218222      1.7561561
H      -0.8228214     -4.6223571     -2.4664222
C      -1.3030080     -4.0269665      0.8635617
C      -1.0394088     -4.7393099     -0.3323656
H      -1.2954312     -4.5521267      1.8200309
H      -0.8389628     -5.8110152     -0.2904193
H       4.0999869      2.9302824      0.7699776
C       4.0333669     -0.2605225      1.4304791
C       4.2917660     -1.3579730      0.4891574
C       3.9052032      0.5913548     -0.6995583
C       3.4117777      2.1710858      1.1679619
C       4.1719937     -0.8749776     -0.7850362
N       3.7364534      0.8682158      0.6447802
O       3.8607371      1.4192501     -1.5869809
O       4.0892726     -0.2353051      2.6444556
H       4.5815682     -2.3515889      0.8214525
H       3.5098572      2.1201645      2.2593368
H       4.4669806     -1.3364836     -1.7232422
H       2.3787129      2.4423224      0.9021032
          85

O       1.1701754      0.7746008     -2.3808265
C       1.7123067     -0.3162399     -2.3975603
O       2.2737661     -0.8110324     -3.5199635
C       2.2732330      0.0472946     -4.6544109
C       2.9447263     -0.6884019     -5.7912142
C       1.9040765     -1.2052836     -1.2775921
N       1.4004296     -0.9050434     -0.0659437
C       1.6003504     -1.7769639      0.8879918
C       1.2169383     -1.5803148      2.2838759
C       1.0376189     -0.3073063      2.8478593
C       0.6298896     -0.1710262      4.1721188
C       0.4240978     -1.2989139      4.9688850
C       0.6419968     -2.5705377      4.4315811
C       1.0392503     -2.7070809      3.1047379
H       1.2358834      0.3194866     -4.9043379
H       2.8041368      0.9752466     -4.3935878
H       2.9645131     -0.0583463     -6.6904519
H       2.4019745     -1.6148861     -6.0254932
H       3.9783742     -0.9486381     -5.5244027
H       0.5508331      0.5521206      0.0888512
H       2.1946487     -2.2351845     -1.5127307
H       1.9450466     -2.7870363      0.6214660
H       1.2329224      0.5734556      2.2359991
H       0.4811390      0.8269242      4.5894355
H       0.1074726     -1.1880732      6.0074755
H       0.4981557     -3.4584659      5.0502251
H       1.1999620     -3.7018397      2.6814847
H      -3.7651832      4.2251389     -1.3664471
C      -3.0840332      3.3954258     -1.5267664
H      -4.1644053      1.4644950     -1.2267830
H      -0.0538719      4.7155410     -2.2699670
C      -3.2819871      2.0514678     -1.4646220
H      -1.1782655      5.4465015     -1.0834502
C      -1.1061309      4.8846203     -2.0215378
N      -1.7571521      3.5902347     -1.8609542
H      -6.1533575     -1.5047836      1.7183710
H      -6.4782052      0.0423372      3.6562418
C      -5.3761995     -0.7809725      1.9696124
C      -5.5628657      0.0961678      3.0652754
N      -2.0718307      1.4567759     -1.7675366
H      -1.5920134      5.4413287     -2.8306731
C      -1.1638305      2.4088701     -1.9948686
C      -4.2240360     -0.7314074      1.2179858
C      -4.5892482      1.0179338      3.3714712
H      -1.5518241     -0.1088656     -3.8519464
H      -4.0964898     -1.4160076      0.3780698
H      -4.7223971      1.7098996      4.2061790
C      -1.7952664      0.0465618     -1.7035797
C      -1.5441639     -0.6524935     -2.9067584
C      -3.1890530      0.1996891      1.5212984
C      -3.3936034      1.0987398      2.6092479
H      -0.1126784      2.2036284     -2.2048732
C      -1.9829536      0.2815307      0.7519354
C      -2.4002628      2.0800052      2.8876398
C      -1.7892984     -0.5586274     -0.4633528
C      -1.2822971     -1.9958469     -2.8535659
H      -2.5613423      2.7715992      3.7174018
H      -1.0702169     -2.5532725     -3.7676101
C      -1.2630657      2.1565215      2.1333129
C      -1.0325776      1.2508682      1.0566654
C      -1.5563965     -1.9707942     -0.4049436
C      -1.2923795     -2.6871012     -1.6089060
O       0.0993669      1.4239296      0.3624140
H      -0.4893553      2.8983930      2.3381588
C      -1.5481466     -2.6742973      0.8298006
C      -1.0302068     -4.0823199     -1.5402639
H      -1.7169575     -2.1218515      1.7556930
H      -0.8216135     -4.6216332     -2.4664463
C      -1.3039004     -4.0264571      0.8632710
C      -1.0388989     -4.7386306     -0.3325053
H      -1.2969210     -4.5517667      1.8196619
H      -0.8377253     -5.8101834     -0.2903978
H       4.1144488      2.9269270      0.7766516
C       4.0321864     -0.2645106      1.4288617
C       4.2756922     -1.3605589      0.4875677
C       3.8951625      0.5933572     -0.6993641
C       3.4217343      2.1709993      1.1731824
C       4.1434399     -0.8760482     -0.7877064
N       3.7353665      0.8679274      0.6452597
O       3.8526866      1.4230047     -1.5861411
O       4.0950857     -0.2359152      2.6429155
H       4.5740264     -2.3530505      0.8149167
H       3.5217768      2.1154113      2.2641492
H       4.4503203     -1.3331971     -1.7269957
H       2.3901891      2.4510977      0.9106411
          85

O       1.1694236      0.7673159     -2.3772745
C       1.7255580     -0.3153019     -2.3959717
O       2.2765858     -0.8120733     -3.5201188
C       2.2723459      0.0457900     -4.6557530
C       2.9443855     -0.6898829     -5.7919305
C       1.9497029     -1.1948651     -1.2673717
N       1.4073272     -0.9000263     -0.0655460
C       1.6013658     -1.7733429      0.8867145
C       1.2137841     -1.5796937      2.2830921
C       1.0367741     -0.3069706      2.8474646
C       0.6310239     -0.1709905      4.1725151
C       0.4257460     -1.2992736      4.9686741
C       0.6420112     -2.5709559      4.4307426
C       1.0369762     -2.7070067      3.1030723
H       1.2342039      0.3159111     -4.9040398
H       2.8023561      0.9742129     -4.3947792
H       2.9653631     -0.0595158     -6.6908804
H       2.4015735     -1.6160767     -6.0270696
H       3.9776252     -0.9503071     -5.5238761
H       0.5527051      0.5520707      0.0886586
H       2.2069025     -2.2309019     -1.5091883
H       1.9500813     -2.7824054      0.6214308
H       1.2332370      0.5735993      2.2357152
H       0.4840562      0.8267445      4.5908523
H       0.1110925     -1.1887667      6.0079116
H       0.4991950     -3.4589269      5.0494841
H       1.1976012     -3.7015556      2.6793141
H      -3.7660575      4.2253453     -1.3654017
C      -3.0848467      3.3957443     -1.5260543
H      -4.1648695      1.4646398     -1.2259580
H      -0.0552652      4.7164291     -2.2706750
C      -3.2826041      2.0517549     -1.4640222
H      -1.1794031      5.4474342     -1.0839424
C      -1.1074673      4.8853163     -2.0218944
N      -1.7581253      3.5907792     -1.8606688
H      -6.1537442     -1.5049490      1.7190755
H      -6.4783208      0.0423777      3.6568450
C      -5.3765838     -0.7810723      1.9701166
C      -5.5630872      0.0961765      3.0657141
N      -2.0725093      1.4571613     -1.7674125
H      -1.5938597      5.4415792     -2.8310221
C      -1.1647473      2.4094880     -1.9948344
C      -4.2245714     -0.7314553      1.2182635
C      -4.5894591      1.0180373      3.3716546
H      -1.5531591     -0.1087638     -3.8520884
H      -4.0972166     -1.4160711      0.3783329
H      -4.7225337      1.7100644      4.2063224
C      -1.7962802      0.0468451     -1.7036736
C      -1.5452356     -0.6522678     -2.9068214
C      -3.1895718      0.1997150      1.5213667
C      -3.3939052      1.0988198      2.6092816
H      -0.1136551      2.2055213     -2.2053397
C      -1.9836061      0.2815975      0.7518148
C      -2.4003662      2.0800131      2.8874228
C      -1.7904778     -0.5584647     -0.4634993
C      -1.2832022     -1.9956434     -2.8537126
H      -2.5612737      2.7717188      3.7171280
H      -1.0713844     -2.5530588     -3.7678182
C      -1.2632018      2.1563876      2.1329872
C      -1.0327182      1.2506522      1.0562812
C      -1.5576457     -1.9705736     -0.4051560
C      -1.2928448     -2.6868290     -1.6090322
O       0.0990788      1.4235864      0.3619711
H      -0.4894407      2.8982412      2.3377209
C      -1.5498627     -2.6741864      0.8295750
C      -1.0300322     -4.0820225     -1.5402684
H      -1.7198616     -2.1219616      1.7553552
H      -0.8210734     -4.6212932     -2.4663858
C      -1.3044532     -4.0261087      0.8631510
C      -1.0385383     -4.7382402     -0.3325031
H      -1.2976625     -4.5514629      1.8195228
H      -0.8366632     -5.8096425     -0.2902229
H       4.1254550      2.9231654      0.7804320
C       4.0318614     -0.2703440      1.4271119
C       4.2666905     -1.3631320      0.4893970
C       3.8897585      0.5959907     -0.6991852
C       3.4288342      2.1700967      1.1757770
C       4.1191667     -0.8775837     -0.7920119
N       3.7328071      0.8670072      0.6436806
O       3.8462000      1.4254456     -1.5871863
O       4.0987974     -0.2355407      2.6421308
H       4.5662044     -2.3563006      0.8129069
H       3.5307271      2.1102479      2.2663352
H       4.4506793     -1.3242232     -1.7272870
H       2.3986947      2.4580720      0.9162683
          85

O       1.1645345      0.7611514     -2.3775433
C       1.7266733     -0.3170640     -2.3975889
O       2.2739705     -0.8143302     -3.5212293
C       2.2708877      0.0442695     -4.6572945
C       2.9438757     -0.6915148     -5.7926198
C       1.9668443     -1.1919036     -1.2627150
N       1.4017564     -0.8987146     -0.0664411
C       1.5975162     -1.7718724      0.8846986
C       1.2105386     -1.5797702      2.2823870
C       1.0357184     -0.3071480      2.8468445
C       0.6316898     -0.1712217      4.1725176
C       0.4267088     -1.2997888      4.9682131
C       0.6419571     -2.5715605      4.4300882
C       1.0351232     -2.7073757      3.1017927
H       1.2330042      0.3146603     -4.9058403
H       2.8012684      0.9718425     -4.3942507
H       2.9671205     -0.0603823     -6.6909454
H       2.4002421     -1.6167643     -6.0294529
H       3.9763151     -0.9532934     -5.5229267
H       0.5523946      0.5495435      0.0888558
H       2.1953156     -2.2340522     -1.5099653
H       1.9452746     -2.7811673      0.6193913
H       1.2323802      0.5731953      2.2348637
H       0.4859145      0.8263670      4.5915293
H       0.1132473     -1.1894750      6.0078426
H       0.4999734     -3.4594804      5.0490307
H       1.1954559     -3.7017809      2.6776082
H      -3.7669837      4.2254447     -1.3644859
C      -3.0856660      3.3959858     -1.5254132
H      -4.1652652      1.4646780     -1.2251719
H      -0.0566032      4.7170607     -2.2716793
C      -3.2831653      2.0519550     -1.4634555
H      -1.1802487      5.4483037     -1.0846282
C      -1.1087014      4.8858753     -2.0224162
N      -1.7591086      3.5912739     -1.8604205
H      -6.1540720     -1.5052664      1.7195644
H      -6.4785251      0.0422967      3.6571672
C      -5.3769282     -0.7813186      1.9704501
C      -5.5633457      0.0960586      3.0659511
N      -2.0731100      1.4574753     -1.7672588
H      -1.5956163      5.4417241     -2.8315086
C      -1.1656580      2.4100984     -1.9947725
C      -4.2250250     -0.7316588      1.2184752
C      -4.5897367      1.0180172      3.3717243
H      -1.5542028     -0.1087399     -3.8521919
H      -4.0977860     -1.4162857      0.3785474
H      -4.7228215      1.7101153      4.2063321
C      -1.7973614      0.0470111     -1.7037427
C      -1.5463570     -0.6521984     -2.9068854
C      -3.1900828      0.1996192      1.5214231
C      -3.3942466      1.0988050      2.6092651
H      -0.1146896      2.2073924     -2.2058443
C      -1.9843257      0.2815193      0.7516958
C      -2.4006073      2.0800340      2.8870700
C      -1.7919136     -0.5584641     -0.4636744
C      -1.2843359     -1.9956091     -2.8538668
H      -2.5614058      2.7718907      3.7166747
H      -1.0725496     -2.5529802     -3.7680082
C      -1.2634917      2.1562968      2.1325058
C      -1.0330317      1.2504245      1.0557974
C      -1.5594394     -1.9706130     -0.4054170
C      -1.2939569     -2.6868161     -1.6091612
O       0.0986425      1.4224283      0.3614697
H      -0.4897159      2.8981827      2.3370922
C      -1.5517405     -2.6741926      0.8293360
C      -1.0303837     -4.0819132     -1.5402608
H      -1.7226253     -2.1220891      1.7550072
H      -0.8210883     -4.6211652     -2.4663103
C      -1.3051058     -4.0258799      0.8630931
C      -1.0384789     -4.7379976     -0.3324340
H      -1.2981951     -4.5511805      1.8194948
H      -0.8358330     -5.8092392     -0.2899785
H       4.1310425      2.9189607      0.7815368
C       4.0253945     -0.2780857      1.4230683
C       4.2422026     -1.3692105      0.4867891
C       3.8762376      0.5951036     -0.7013944
C       3.4317414      2.1678981      1.1761382
C       4.0761762     -0.8833224     -0.7993522
N       3.7276664      0.8647001      0.6405398
O       3.8386821      1.4249902     -1.5899438
O       4.0992222     -0.2380903      2.6386201
H       4.5444772     -2.3629685      0.8054461
H       3.5355616      2.1045818      2.2663394
H       4.4282674     -1.3221245     -1.7315338
H       2.4024606      2.4617877      0.9195007
          85

O       1.1588976      0.7562387     -2.3790273
C       1.7248479     -0.3187711     -2.3999708
O       2.2696077     -0.8166341     -3.5225807
C       2.2696364      0.0430427     -4.6587609
C       2.9433493     -0.6932443     -5.7931092
C       1.9781726     -1.1905139     -1.2594175
N       1.3929520     -0.8984221     -0.0676336
C       1.5921570     -1.7709882      0.8824953
C       1.2074679     -1.5800622      2.2818853
C       1.0348450     -0.3074730      2.8463533
C       0.6322921     -0.1715006      4.1725519
C       0.4273219     -1.3002824      4.9678321
C       0.6419651     -2.5721620      4.4297330
C       1.0337285     -2.7078482      3.1009403
H       1.2325252      0.3150776     -4.9082269
H       2.8013115      0.9690451     -4.3930005
H       2.9692983     -0.0613486     -6.6907959
H       2.3983625     -1.6172158     -6.0317042
H       3.9748133     -0.9570032     -5.5217283
H       0.5516288      0.5463834      0.0892387
H       2.1783841     -2.2378855     -1.5124649
H       1.9382315     -2.7807287      0.6169682
H       1.2314383      0.5726277      2.2340349
H       0.4874835      0.8259779      4.5920736
H       0.1145353     -1.1900497      6.0076840
H       0.5005948     -3.4599849      5.0488941
H       1.1938000     -3.7021585      2.6764516
H      -3.7678918      4.2254896     -1.3635660
C      -3.0864265      3.3962021     -1.5247393
H      -4.1655250      1.4646498     -1.2243579
H      -0.0579823      4.7176859     -2.2730425
C      -3.2836116      2.0521223     -1.4628544
H      -1.1809302      5.4492930     -1.0855541
C      -1.1099333      4.8864417     -2.0231230
N      -1.7600390      3.5917881     -1.8601266
H      -6.1542642     -1.5057031      1.7199188
H      -6.4787695      0.0421792      3.6572636
C      -5.3771657     -0.7816658      1.9706862
C      -5.5635912      0.0958783      3.0660420
N      -2.0735710      1.4577976     -1.7670533
H      -1.5975149      5.4417841     -2.8321569
C      -1.1664687      2.4107596     -1.9946308
C      -4.2253202     -0.7319719      1.2186763
C      -4.5900152      1.0179288      3.3717130
H      -1.5548774     -0.1086997     -3.8522577
H      -4.0981337     -1.4166303      0.3787825
H      -4.7231775      1.7101142      4.2062371
C      -1.7983370      0.0471740     -1.7037891
C      -1.5473215     -0.6521400     -2.9069247
C      -3.1904867      0.1994643      1.5214907
C      -3.3945462      1.0987336      2.6092413
H      -0.1156265      2.2093276     -2.2062502
C      -1.9849628      0.2814328      0.7515887
C      -2.4008827      2.0800815      2.8866859
C      -1.7933634     -0.5584841     -0.4638456
C      -1.2854157     -1.9956015     -2.8539753
H      -2.5616354      2.7721075      3.7161635
H      -1.0735219     -2.5529185     -3.7681280
C      -1.2638270      2.1563031      2.1319877
C      -1.0333152      1.2502674      1.0553139
C      -1.5614050     -1.9707045     -0.4056646
C      -1.2952654     -2.6868678     -1.6092520
O       0.0982904      1.4211526      0.3610865
H      -0.4900925      2.8982861      2.3364067
C      -1.5536241     -2.6741713      0.8291407
C      -1.0308850     -4.0818455     -1.5401768
H      -1.7252469     -2.1221376      1.7547010
H      -0.8212410     -4.6211012     -2.4661441
C      -1.3057147     -4.0256170      0.8631356
C      -1.0384586     -4.7377531     -0.3322537
H      -1.2985235     -4.5508019      1.8196014
H      -0.8349829     -5.8088218     -0.2896020
H       4.1347592      2.9145154      0.7817081
C       4.0179926     -0.2860868      1.4187649
C       4.2169417     -1.3756551      0.4840708
C       3.8626531      0.5935480     -0.7039220
C       3.4331605      2.1652382      1.1757733
C       4.0332576     -0.8894156     -0.8070927
N       3.7217495      0.8619268      0.6369812
O       3.8315391      1.4236527     -1.5930516
O       4.0986830     -0.2411501      2.6347876
H       4.5212334     -2.3701545      0.7980460
H       3.5388973      2.0987661      2.2656244
H       4.4060172     -1.3206262     -1.7353729
H       2.4046084      2.4643372      0.9218877
          85

O       1.1520543      0.7530927     -2.3821387
C       1.7187366     -0.3209851     -2.4031248
O       2.2638075     -0.8190636     -3.5239732
C       2.2687428      0.0419363     -4.6598987
C       2.9426974     -0.6951213     -5.7934424
C       1.9792088     -1.1916552     -1.2582246
N       1.3789023     -0.9001350     -0.0696557
C       1.5855571     -1.7707588      0.8804272
C       1.2054243     -1.5804874      2.2817984
C       1.0345532     -0.3078505      2.8460897
C       0.6328253     -0.1718307      4.1725658
C       0.4275233     -1.3008028      4.9674266
C       0.6417691     -2.5728110      4.4294998
C       1.0331717     -2.7084286      3.1005571
H       1.2328808      0.3169795     -4.9108182
H       2.8025958      0.9657489     -4.3910796
H       2.9712664     -0.0624655     -6.6904954
H       2.3959923     -1.6176331     -6.0336621
H       3.9732055     -0.9612178     -5.5208006
H       0.5499097      0.5423151      0.0894130
H       2.1569530     -2.2423918     -1.5160662
H       1.9295367     -2.7810311      0.6144471
H       1.2305285      0.5720429      2.2332847
H       0.4883846      0.8255488      4.5923859
H       0.1146304     -1.1905974      6.0072578
H       0.5001941     -3.4605277      5.0487207
H       1.1927477     -3.7026590      2.6757087
H      -3.7687246      4.2254893     -1.3625608
C      -3.0870803      3.3963916     -1.5239481
H      -4.1656108      1.4645483     -1.2235450
H      -0.0595289      4.7183545     -2.2751240
C      -3.2838949      2.0522542     -1.4621956
H      -1.1813761      5.4504718     -1.0869023
C      -1.1112478      4.8870083     -2.0241633
N      -1.7608778      3.5923068     -1.8597269
H      -6.1541972     -1.5064357      1.7201941
H      -6.4792545      0.0421476      3.6569139
C      -5.3772487     -0.7821938      1.9708404
C      -5.5639330      0.0956694      3.0658969
N      -2.0738316      1.4581293     -1.7667468
H      -1.5998442      5.4416643     -2.8330532
C      -1.1671000      2.4114664     -1.9943290
C      -4.2254046     -0.7324453      1.2188733
C      -4.5903250      1.0176901      3.3716456
H      -1.5550542     -0.1086516     -3.8522750
H      -4.0981989     -1.4172318      0.3791081
H      -4.7236458      1.7100122      4.2060351
C      -1.7991841      0.0473198     -1.7038125
C      -1.5480796     -0.6521110     -2.9069367
C      -3.1907124      0.1992253      1.5215458
C      -3.3947730      1.0984686      2.6092644
H      -0.1163779      2.2111791     -2.2064557
C      -1.9853963      0.2813786      0.7514912
C      -2.4011825      2.0800911      2.8861753
C      -1.7948642     -0.5585198     -0.4640245
C      -1.2863277     -1.9956171     -2.8540314
H      -2.5619820      2.7723343      3.7154705
H      -1.0740145     -2.5528607     -3.7681404
C      -1.2641946      2.1564944      2.1313208
C      -1.0334069      1.2502715      1.0547449
C      -1.5636954     -1.9708532     -0.4059308
C      -1.2968085     -2.6869778     -1.6093010
O       0.0982648      1.4197267      0.3608404
H      -0.4906881      2.8987693      2.3355905
C      -1.5556119     -2.6740695      0.8289671
C      -1.0315252     -4.0817816     -1.5399928
H      -1.7277803     -2.1220266      1.7544096
H      -0.8214507     -4.6210620     -2.4658488
C      -1.3062546     -4.0252412      0.8632964
C      -1.0384675     -4.7374496     -0.3319270
H      -1.2985230     -4.5502024      1.8198832
H      -0.8340678     -5.8083275     -0.2890320
H       4.1362166      2.9102170      0.7817387
C       4.0084335     -0.2934606      1.4139396
C       4.1889454     -1.3829557      0.4808987
C       3.8489823      0.5910318     -0.7070919
C       3.4327889      2.1622971      1.1752000
C       3.9948879     -0.8956808     -0.8145317
N       3.7149015      0.8589561      0.6331556
O       3.8246064      1.4216221     -1.5963292
O       4.0974555     -0.2450551      2.6299935
H       4.4935955     -2.3782651      0.7917213
H       3.5404284      2.0926960      2.2646836
H       4.3817469     -1.3216320     -1.7401887
H       2.4047685      2.4657009      0.9240342
          85

O       1.1474110      0.7514046     -2.3858445
C       1.7074660     -0.3247699     -2.4069740
O       2.2605165     -0.8201947     -3.5247044
C       2.2678085      0.0412675     -4.6611401
C       2.9421932     -0.6960237     -5.7942600
C       1.9546912     -1.2003316     -1.2628628
N       1.3667825     -0.9030351     -0.0701860
C       1.5824130     -1.7719254      0.8795962
C       1.2056426     -1.5808103      2.2817650
C       1.0342538     -0.3079872      2.8455277
C       0.6327501     -0.1720666      4.1720464
C       0.4275357     -1.3012899      4.9667486
C       0.6412321     -2.5732206      4.4286644
C       1.0329727     -2.7088589      3.0998338
H       1.2321115      0.3160252     -4.9130133
H       2.8012748      0.9648501     -4.3910612
H       2.9716382     -0.0631711     -6.6911408
H       2.3945567     -1.6178700     -6.0352019
H       3.9723912     -0.9630483     -5.5212635
H       0.5486856      0.5388923      0.0904159
H       2.1242374     -2.2524887     -1.5219160
H       1.9192574     -2.7840965      0.6123182
H       1.2291652      0.5718739      2.2323743
H       0.4875716      0.8251824      4.5919202
H       0.1144164     -1.1913261      6.0065249
H       0.4989760     -3.4610675      5.0475596
H       1.1917988     -3.7030950      2.6747432
H      -3.7685921      4.2258570     -1.3621448
C      -3.0872686      3.3964964     -1.5235681
H      -4.1657209      1.4643713     -1.2237530
H      -0.0602529      4.7185768     -2.2762467
C      -3.2840489      2.0522998     -1.4619512
H      -1.1817159      5.4506049     -1.0875191
C      -1.1118765      4.8870248     -2.0247321
N      -1.7612057      3.5923839     -1.8596397
H      -6.1537215     -1.5075055      1.7207146
H      -6.4796093      0.0419893      3.6565783
C      -5.3772637     -0.7825515      1.9708840
C      -5.5642627      0.0957095      3.0656098
N      -2.0739419      1.4581976     -1.7665362
H      -1.6009242      5.4415032     -2.8334701
C      -1.1673462      2.4116710     -1.9941186
C      -4.2254795     -0.7326413      1.2188870
C      -4.5905527      1.0174575      3.3718663
H      -1.5554079     -0.1088512     -3.8524379
H      -4.0982496     -1.4176024      0.3792966
H      -4.7241660      1.7102174      4.2058442
C      -1.7995889      0.0472436     -1.7037705
C      -1.5483346     -0.6521643     -2.9069416
C      -3.1908460      0.1991444      1.5214462
C      -3.3949402      1.0980392      2.6094264
H      -0.1168240      2.2118657     -2.2069862
C      -1.9854898      0.2812545      0.7514672
C      -2.4015238      2.0800405      2.8855959
C      -1.7956390     -0.5586529     -0.4640688
C      -1.2865688     -1.9956661     -2.8540571
H      -2.5620302      2.7721555      3.7150644
H      -1.0744061     -2.5530832     -3.7681198
C      -1.2643655      2.1565646      2.1309024
C      -1.0333571      1.2502860      1.0542973
C      -1.5646003     -1.9709077     -0.4061120
C      -1.2977370     -2.6870654     -1.6093431
O       0.0984709      1.4184804      0.3604252
H      -0.4912110      2.8991372      2.3353374
C      -1.5565782     -2.6740125      0.8287714
C      -1.0320457     -4.0817406     -1.5399204
H      -1.7294577     -2.1221446      1.7541544
H      -0.8214610     -4.6208200     -2.4657799
C      -1.3064699     -4.0250470      0.8633037
C      -1.0387333     -4.7373382     -0.3318205
H      -1.2986129     -4.5500310      1.8198724
H      -0.8339091     -5.8081591     -0.2888439
H       4.1325432      2.9096393      0.7816286
C       4.0017959     -0.2978047      1.4112071
C       4.1673293     -1.3869846      0.4759308
C       3.8363064      0.5877721     -0.7093947
C       3.4299611      2.1604715      1.1741971
C       3.9565192     -0.9013988     -0.8208638
N       3.7126898      0.8575102      0.6312702
O       3.8223107      1.4192643     -1.5977720
O       4.0947145     -0.2480741      2.6272851
H       4.4764437     -2.3822099      0.7828928
H       3.5380041      2.0897105      2.2635851
H       4.3525254     -1.3260939     -1.7437756
H       2.4014826      2.4630754      0.9236823
          85

O       1.1428033      0.7505166     -2.3895202
C       1.6957414     -0.3287152     -2.4109706
O       2.2567007     -0.8216998     -3.5254943
C       2.2662432      0.0403755     -4.6617405
C       2.9420012     -0.6957727     -5.7948249
C       1.9277027     -1.2092099     -1.2675415
N       1.3537136     -0.9062880     -0.0702357
C       1.5778497     -1.7740040      0.8787795
C       1.2053794     -1.5813236      2.2816809
C       1.0338222     -0.3084694      2.8449962
C       0.6320668     -0.1723588      4.1713653
C       0.4269208     -1.3015568      4.9659722
C       0.6409660     -2.5735483      4.4282714
C       1.0326500     -2.7091491      3.0994744
H       1.2307260      0.3149844     -4.9144346
H       2.7991372      0.9638847     -4.3905508
H       2.9708434     -0.0621121     -6.6911591
H       2.3955108     -1.6180586     -6.0364225
H       3.9723893     -0.9620211     -5.5218759
H       0.5463675      0.5359835      0.0913745
H       2.0919766     -2.2621156     -1.5263456
H       1.9087166     -2.7877843      0.6101984
H       1.2283160      0.5713197      2.2316212
H       0.4868312      0.8249190      4.5911477
H       0.1136637     -1.1914127      6.0056993
H       0.4988763     -3.4611968      5.0474508
H       1.1915793     -3.7032565      2.6741355
H      -3.7689942      4.2254255     -1.3626212
C      -3.0873864      3.3963058     -1.5240158
H      -4.1659699      1.4645183     -1.2234492
H      -0.0596919      4.7179747     -2.2752759
C      -3.2842488      2.0521785     -1.4621856
H      -1.1814188      5.4501894     -1.0869868
C      -1.1113806      4.8867588     -2.0242738
N      -1.7612293      3.5921619     -1.8598630
H      -6.1544911     -1.5065066      1.7201402
H      -6.4794112      0.0419937      3.6568985
C      -5.3775057     -0.7823014      1.9707802
C      -5.5641054      0.0955371      3.0658611
N      -2.0742633      1.4579636     -1.7667786
H      -1.5999207      5.4415270     -2.8331192
C      -1.1676315      2.4113418     -1.9944611
C      -4.2257201     -0.7325722      1.2188064
C      -4.5905084      1.0175714      3.3716109
H      -1.5557172     -0.1087818     -3.8523591
H      -4.0985582     -1.4173132      0.3790087
H      -4.7238259      1.7098863      4.2060085
C      -1.7999763      0.0471001     -1.7038373
C      -1.5488279     -0.6523467     -2.9070604
C      -3.1910748      0.1990578      1.5214866
C      -3.3950339      1.0983674      2.6091524
H      -0.1171522      2.2114779     -2.2069631
C      -1.9859731      0.2810309      0.7513789
C      -2.4014638      2.0800386      2.8857762
C      -1.7957542     -0.5588178     -0.4641732
C      -1.2870745     -1.9958166     -2.8542526
H      -2.5622055      2.7724137      3.7149758
H      -1.0747052     -2.5530103     -3.7683977
C      -1.2645353      2.1562616      2.1308074
C      -1.0339056      1.2499402      1.0542653
C      -1.5647140     -1.9712645     -0.4061601
C      -1.2979749     -2.6873312     -1.6094659
O       0.0976001      1.4174511      0.3601027
H      -0.4909676      2.8985064      2.3349756
C      -1.5563372     -2.6743306      0.8287323
C      -1.0323764     -4.0819968     -1.5402206
H      -1.7285646     -2.1222518      1.7541488
H      -0.8222893     -4.6212632     -2.4660876
C      -1.3068328     -4.0255099      0.8630949
C      -1.0390599     -4.7376704     -0.3321101
H      -1.2989485     -4.5504609      1.8196824
H      -0.8345157     -5.8085176     -0.2892371
H       4.1288051      2.9094158      0.7786534
C       3.9963129     -0.3015170      1.4083638
C       4.1459599     -1.3910553      0.4707532
C       3.8240371      0.5845135     -0.7116943
C       3.4273922      2.1595635      1.1719368
C       3.9203813     -0.9064883     -0.8267644
N       3.7109561      0.8563114      0.6295467
O       3.8201092      1.4164937     -1.5995489
O       4.0920357     -0.2513801      2.6244676
H       4.4577045     -2.3866688      0.7739762
H       3.5351836      2.0895772      2.2614091
H       4.3194579     -1.3300317     -1.7491886
H       2.3984571      2.4605001      0.9208829
          85

O       1.1363027      0.7487273     -2.3933031
C       1.6853689     -0.3314676     -2.4143865
O       2.2496088     -0.8243705     -3.5264827
C       2.2642498      0.0393795     -4.6619967
C       2.9419886     -0.6954329     -5.7946589
C       1.9158096     -1.2129220     -1.2686230
N       1.3368858     -0.9092865     -0.0717598
C       1.5699641     -1.7751833      0.8770846
C       1.2032052     -1.5822883      2.2817706
C       1.0329374     -0.3091861      2.8445531
C       0.6314544     -0.1726353      4.1709472
C       0.4262036     -1.3017251      4.9656564
C       0.6408139     -2.5739245      4.4287321
C       1.0321273     -2.7099130      3.0998535
H       1.2297723      0.3156296     -4.9169527
H       2.7975619      0.9615196     -4.3872381
H       2.9710002     -0.0606895     -6.6902208
H       2.3963942     -1.6178168     -6.0378545
H       3.9723869     -0.9610641     -5.5211965
H       0.5433143      0.5321420      0.0915398
H       2.0660111     -2.2679094     -1.5303823
H       1.8962672     -2.7901076      0.6075271
H       1.2266063      0.5702709      2.2304537
H       0.4859862      0.8246951      4.5904889
H       0.1124610     -1.1912884      6.0052093
H       0.4989861     -3.4612914      5.0483471
H       1.1907440     -3.7040871      2.6745563
H      -3.7692599      4.2253753     -1.3631681
C      -3.0876946      3.3962210     -1.5245341
H      -4.1664441      1.4645359     -1.2239440
H      -0.0589549      4.7169219     -2.2737251
C      -3.2846513      2.0520967     -1.4626579
H      -1.1811490      5.4492556     -1.0859790
C      -1.1107425      4.8862508     -2.0234946
N      -1.7614728      3.5919536     -1.8601454
H      -6.1551821     -1.5059932      1.7201400
H      -6.4792960      0.0419586      3.6574429
C      -5.3779941     -0.7820124      1.9708035
C      -5.5641790      0.0955919      3.0661249
N      -2.0747146      1.4576955     -1.7670826
H      -1.5982732      5.4417395     -2.8324519
C      -1.1680909      2.4111108     -1.9946659
C      -4.2263033     -0.7323703      1.2187121
C      -4.5905549      1.0176705      3.3716766
H      -1.5567071     -0.1091942     -3.8525211
H      -4.0993154     -1.4169431      0.3787545
H      -4.7237046      1.7098969      4.2061764
C      -1.8007797      0.0467262     -1.7039437
C      -1.5497890     -0.6527988     -2.9072322
C      -3.1915131      0.1990380      1.5214445
C      -3.3952460      1.0984854      2.6090708
H      -0.1177039      2.2117569     -2.2070970
C      -1.9865476      0.2807375      0.7513091
C      -2.4015276      2.0799632      2.8858909
C      -1.7966072     -0.5592037     -0.4643086
C      -1.2878828     -1.9962215     -2.8545207
H      -2.5621166      2.7721816      3.7152559
H      -1.0755721     -2.5533752     -3.7687102
C      -1.2646802      2.1560088      2.1308485
C      -1.0345062      1.2498579      1.0539897
C      -1.5655391     -1.9717550     -0.4064089
C      -1.2986959     -2.6877659     -1.6096776
O       0.0966744      1.4163739      0.3596529
H      -0.4908296      2.8979740      2.3349777
C      -1.5565347     -2.6748341      0.8284420
C      -1.0328354     -4.0823832     -1.5405759
H      -1.7284752     -2.1227613      1.7539241
H      -0.8228068     -4.6215571     -2.4665140
C      -1.3070034     -4.0260507      0.8627276
C      -1.0394876     -4.7382051     -0.3325278
H      -1.2989244     -4.5510352      1.8192998
H      -0.8350532     -5.8090744     -0.2897555
H       4.1287661      2.9064417      0.7747841
C       3.9871990     -0.3073034      1.4035649
C       4.1190722     -1.3972591      0.4668263
C       3.8107859      0.5810787     -0.7153690
C       3.4265121      2.1578203      1.1688909
C       3.8849289     -0.9123319     -0.8336197
N       3.7058597      0.8537881      0.6256958
O       3.8143975      1.4133424     -1.6029657
O       4.0904439     -0.2556765      2.6194364
H       4.4320528     -2.3933605      0.7671240
H       3.5358364      2.0872409      2.2581898
H       4.2964196     -1.3333249     -1.7523898
H       2.3977571      2.4608886      0.9194432
          85

O       1.1298161      0.7453261     -2.3958178
C       1.6791337     -0.3335507     -2.4174579
O       2.2430708     -0.8267841     -3.5278378
C       2.2621337      0.0385716     -4.6628406
C       2.9419941     -0.6954520     -5.7945222
C       1.9182435     -1.2139821     -1.2670203
N       1.3236825     -0.9105861     -0.0726302
C       1.5633867     -1.7753455      0.8751376
C       1.2004735     -1.5830755      2.2816362
C       1.0316782     -0.3098351      2.8439722
C       0.6310763     -0.1728785      4.1706435
C       0.4259680     -1.3019226      4.9653758
C       0.6407158     -2.5743147      4.4289941
C       1.0311224     -2.7105779      3.0998124
H       1.2286063      0.3161805     -4.9197916
H       2.7958813      0.9592853     -4.3843848
H       2.9723842     -0.0597627     -6.6893493
H       2.3967076     -1.6175060     -6.0395738
H       3.9719455     -0.9612372     -5.5196241
H       0.5414251      0.5282162      0.0919752
H       2.0432434     -2.2716386     -1.5342736
H       1.8862386     -2.7912298      0.6050461
H       1.2248624      0.5692553      2.2292274
H       0.4858426      0.8244738      4.5901512
H       0.1123394     -1.1912847      6.0049510
H       0.4994978     -3.4614290      5.0490631
H       1.1896419     -3.7047959      2.6745864
H      -3.7696681      4.2253798     -1.3634847
C      -3.0881216      3.3962131     -1.5248453
H      -4.1669978      1.4645817     -1.2244261
H      -0.0586167      4.7161493     -2.2726752
C      -3.2851402      2.0520861     -1.4630372
H      -1.1810110      5.4486518     -1.0852480
C      -1.1104459      4.8859202     -2.0229135
N      -1.7618529      3.5918720     -1.8602279
H      -6.1557921     -1.5056968      1.7202815
H      -6.4794448      0.0420591      3.6578027
C      -5.3784833     -0.7818366      1.9709240
C      -5.5644152      0.0956746      3.0663499
N      -2.0752342      1.4575294     -1.7672934
H      -1.5973058      5.4419033     -2.8319315
C      -1.1686594      2.4110329     -1.9946761
C      -4.2268899     -0.7322442      1.2187100
C      -4.5906932      1.0176916      3.3718187
H      -1.5577326     -0.1095641     -3.8526841
H      -4.1000978     -1.4167157      0.3786450
H      -4.7237065      1.7098748      4.2063787
C      -1.8017873      0.0464314     -1.7040666
C      -1.5508241     -0.6531863     -2.9073881
C      -3.1919770      0.1990053      1.5214355
C      -3.3954876      1.0984652      2.6091026
H      -0.1183795      2.2125975     -2.2071490
C      -1.9871746      0.2805381      0.7511922
C      -2.4016162      2.0798158      2.8858890
C      -1.7977570     -0.5595093     -0.4644673
C      -1.2887641     -1.9965790     -2.8547801
H      -2.5620286      2.7719506      3.7153645
H      -1.0764637     -2.5536959     -3.7689999
C      -1.2648833      2.1557907      2.1306806
C      -1.0349393      1.2497552      1.0535463
C      -1.5667926     -1.9721589     -0.4066940
C      -1.2995956     -2.6881308     -1.6098815
O       0.0959942      1.4151734      0.3591367
H      -0.4908811      2.8976180      2.3347678
C      -1.5573414     -2.6752606      0.8281174
C      -1.0333253     -4.0826939     -1.5408623
H      -1.7294510     -2.1232638      1.7536132
H      -0.8232766     -4.6217810     -2.4668477
C      -1.3072038     -4.0263936      0.8624051
C      -1.0397314     -4.7385766     -0.3328474
H      -1.2988317     -4.5513627      1.8189878
H      -0.8350960     -5.8094013     -0.2900851
H       4.1302953      2.9027378      0.7716724
C       3.9793070     -0.3144780      1.3990197
C       4.0934449     -1.4031478      0.4644187
C       3.7972309      0.5784103     -0.7186368
C       3.4267341      2.1555782      1.1662958
C       3.8429768     -0.9182509     -0.8415937
N       3.7004891      0.8509756      0.6214589
O       3.8086024      1.4105248     -1.6065522
O       4.0892253     -0.2589473      2.6151500
H       4.4087501     -2.3997881      0.7603181
H       3.5379391      2.0833896      2.2553196
H       4.2756772     -1.3330755     -1.7542987
H       2.3983264      2.4619059      0.9190573
          85

O       1.1241544      0.7408260     -2.3971502
C       1.6767803     -0.3349474     -2.4199379
O       2.2381370     -0.8286560     -3.5292008
C       2.2601075      0.0378968     -4.6641451
C       2.9419911     -0.6956189     -5.7946676
C       1.9316118     -1.2130988     -1.2632613
N       1.3137233     -0.9106869     -0.0727783
C       1.5585341     -1.7746413      0.8734171
C       1.1979953     -1.5836109      2.2815529
C       1.0305599     -0.3102924      2.8433854
C       0.6308783     -0.1730428      4.1703710
C       0.4260118     -1.3021475      4.9649805
C       0.6405915     -2.5747303      4.4289869
C       1.0300502     -2.7111366      3.0994737
H       1.2271858      0.3160442     -4.9224587
H       2.7939304      0.9575407     -4.3824956
H       2.9739370     -0.0591868     -6.6888855
H       2.3968913     -1.6173096     -6.0413836
H       3.9714146     -0.9616152     -5.5181147
H       0.5404370      0.5242752      0.0926882
H       2.0242301     -2.2732779     -1.5376350
H       1.8793418     -2.7911932      0.6032334
H       1.2235767      0.5683993      2.2280687
H       0.4860147      0.8242707      4.5900187
H       0.1127573     -1.1914035      6.0046695
H       0.4999694     -3.4616255      5.0494462
H       1.1885932     -3.7053346      2.6742197
H      -3.7700925      4.2254160     -1.3636382
C      -3.0885516      3.3962500     -1.5250117
H      -4.1675030      1.4646310     -1.2247855
H      -0.0585197      4.7156387     -2.2719745
C      -3.2856034      2.0521126     -1.4633001
H      -1.1809716      5.4483038     -1.0847464
C      -1.1103645      4.8857421     -2.0225048
N      -1.7622616      3.5918822     -1.8602079
H      -6.1563130     -1.5054989      1.7204474
H      -6.4796262      0.0421732      3.6580850
C      -5.3789130     -0.7817254      1.9710621
C      -5.5646531      0.0957429      3.0665430
N      -2.0757338      1.4574398     -1.7674364
H      -1.5967831      5.4420295     -2.8315712
C      -1.1692311      2.4110547     -1.9946053
C      -4.2274015     -0.7321771      1.2187468
C      -4.5908301      1.0176915      3.3719512
H      -1.5587277     -0.1098683     -3.8528454
H      -4.1007935     -1.4165781      0.3786012
H      -4.7237352      1.7098517      4.2065501
C      -1.8027604      0.0462180     -1.7041708
C      -1.5517615     -0.6534644     -2.9075159
C      -3.1923925      0.1989607      1.5214381
C      -3.3957032      1.0984181      2.6091460
H      -0.1190464      2.2134719     -2.2070775
C      -1.9877568      0.2803894      0.7510741
C      -2.4016836      2.0796753      2.8858207
C      -1.7988675     -0.5597285     -0.4646103
C      -1.2895257     -1.9968333     -2.8550105
H      -2.5619296      2.7717788      3.7153618
H      -1.0772952     -2.5539256     -3.7692655
C      -1.2650564      2.1555986      2.1304394
C      -1.0352226      1.2496264      1.0530741
C      -1.5679848     -1.9724399     -0.4069546
C      -1.3003558     -2.6883792     -1.6100554
O       0.0954812      1.4138996      0.3586121
H      -0.4909578      2.8973481      2.3344791
C      -1.5582710     -2.6755692      0.8278258
C      -1.0337000     -4.0829102     -1.5410822
H      -1.7307766     -2.1236737      1.7533034
H      -0.8236201     -4.6219380     -2.4670955
C      -1.3073980     -4.0265864      0.8621411
C      -1.0398490     -4.7388093     -0.3330876
H      -1.2988029     -4.5515467      1.8187318
H      -0.8349458     -5.8095730     -0.2902920
H       4.1325042      2.8994024      0.7696993
C       3.9733549     -0.3220549      1.3950416
C       4.0702794     -1.4082171      0.4634130
C       3.7843149      0.5768053     -0.7211855
C       3.4277121      2.1533442      1.1643287
C       3.7977471     -0.9235516     -0.8500610
N       3.6961475      0.8484853      0.6174421
O       3.8036851      1.4084070     -1.6097544
O       4.0889237     -0.2612082      2.6118166
H       4.3877848     -2.4056937      0.7539316
H       3.5405339      2.0789857      2.2530619
H       4.2578315     -1.3295172     -1.7546168
H       2.3996745      2.4629089      0.9191497
          85

O       1.1215657      0.7357367     -2.3946755
C       1.6868094     -0.3329016     -2.4189765
O       2.2364009     -0.8295953     -3.5301589
C       2.2587662      0.0377588     -4.6651964
C       2.9422507     -0.6956054     -5.7944639
C       1.9805107     -1.2025883     -1.2521921
N       1.3135321     -0.9075270     -0.0726219
C       1.5565631     -1.7715541      0.8721794
C       1.1951925     -1.5837386      2.2817199
C       1.0297856     -0.3104498      2.8431871
C       0.6311149     -0.1729691      4.1705749
C       0.4264283     -1.3021207      4.9650421
C       0.6407413     -2.5749614      4.4293975
C       1.0290539     -2.7114772      3.0994548
H       1.2262422      0.3163811     -4.9239502
H       2.7929986      0.9564022     -4.3809403
H       2.9759252     -0.0587880     -6.6883079
H       2.3974613     -1.6170711     -6.0425206
H       3.9711415     -0.9614922     -5.5159892
H       0.5412339      0.5222452      0.0928680
H       2.0308713     -2.2666547     -1.5365364
H       1.8824261     -2.7868783      0.6033194
H       1.2235283      0.5677321      2.2274040
H       0.4871066      0.8242933      4.5905158
H       0.1138255     -1.1912563      6.0049323
H       0.5009238     -3.4616278      5.0502907
H       1.1879031     -3.7056525      2.6742696
H      -3.7704976      4.2255092     -1.3636859
C      -3.0889397      3.3963647     -1.5250967
H      -4.1679422      1.4647303     -1.2251682
H      -0.0584541      4.7153279     -2.2712616
C      -3.2860015      2.0522095     -1.4635454
H      -1.1809824      5.4481571     -1.0842359
C      -1.1103148      4.8857249     -2.0220611
N      -1.7626226      3.5920137     -1.8600741
H      -6.1567840     -1.5052742      1.7206961
H      -6.4797617      0.0423759      3.6584250
C      -5.3792937     -0.7815812      1.9712666
C      -5.5648484      0.0958703      3.0667850
N      -2.0761377      1.4574378     -1.7675628
H      -1.5963579      5.4422308     -2.8311964
C      -1.1696979      2.4112075     -1.9944106
C      -4.2278525     -0.7320831      1.2188311
C      -4.5909021      1.0177435      3.3721066
H      -1.5596413     -0.1101465     -3.8529955
H      -4.1014372     -1.4164320      0.3786142
H      -4.7236883      1.7098865      4.2067412
C      -1.8035674      0.0460906     -1.7042805
C      -1.5525529     -0.6536498     -2.9075991
C      -3.1927226      0.1989651      1.5214663
C      -3.3958288      1.0984101      2.6092332
H      -0.1195171      2.2149615     -2.2068180
C      -1.9881891      0.2803735      0.7509875
C      -2.4015983      2.0795457      2.8858657
C      -1.7997935     -0.5598316     -0.4647092
C      -1.2900365     -1.9969955     -2.8551795
H      -2.5616692      2.7715852      3.7155028
H      -1.0779511     -2.5540978     -3.7694599
C      -1.2650543      2.1554875      2.1303349
C      -1.0352500      1.2495951      1.0527080
C      -1.5689761     -1.9725397     -0.4071593
C      -1.3006362     -2.6884543     -1.6101839
O       0.0952370      1.4132771      0.3582975
H      -0.4908809      2.8971785      2.3343448
C      -1.5590988     -2.6757514      0.8275998
C      -1.0336695     -4.0830320     -1.5412176
H      -1.7320984     -2.1239954      1.7530580
H      -0.8235754     -4.6220186     -2.4672488
C      -1.3073578     -4.0266083      0.8619427
C      -1.0396540     -4.7389212     -0.3332581
H      -1.2986373     -4.5515835      1.8185341
H      -0.8345021     -5.8096241     -0.2903894
H       4.1394071      2.8960116      0.7698377
C       3.9720694     -0.3279391      1.3926698
C       4.0608257     -1.4109392      0.4672420
C       3.7794104      0.5786083     -0.7218486
C       3.4321069      2.1519404      1.1639678
C       3.7743682     -0.9252326     -0.8551107
N       3.6931157      0.8470601      0.6142619
O       3.7997576      1.4089258     -1.6121696
O       4.0921524     -0.2606863      2.6103434
H       4.3772361     -2.4095649      0.7542393
H       3.5466080      2.0747830      2.2523498
H       4.2639908     -1.3191913     -1.7517612
H       2.4050055      2.4668443      0.9212133
          85

O       1.1194007      0.7278031     -2.3910171
C       1.6998921     -0.3312717     -2.4173864
O       2.2372012     -0.8300664     -3.5313789
C       2.2567428      0.0374243     -4.6671247
C       2.9424660     -0.6955063     -5.7949949
C       2.0218206     -1.1954554     -1.2440075
N       1.3191319     -0.9030479     -0.0721267
C       1.5557972     -1.7684064      0.8710520
C       1.1922040     -1.5835227      2.2813423
C       1.0287237     -0.3103449      2.8428801
C       0.6314135     -0.1728182      4.1707352
C       0.4270454     -1.3021924      4.9648342
C       0.6408383     -2.5752159      4.4292086
C       1.0276239     -2.7116627      3.0987300
H       1.2236898      0.3138721     -4.9255390
H       2.7896312      0.9564619     -4.3816496
H       2.9777677     -0.0585815     -6.6886580
H       2.3983571     -1.6170394     -6.0441820
H       3.9707865     -0.9610108     -5.5141806
H       0.5431005      0.5205316      0.0928085
H       2.0422900     -2.2574474     -1.5349826
H       1.8857788     -2.7830057      0.6036387
H       1.2233821      0.5674396      2.2268820
H       0.4885035      0.8243293      4.5912384
H       0.1154718     -1.1914053      6.0050537
H       0.5021251     -3.4617272      5.0505154
H       1.1869616     -3.7057272      2.6734674
H      -3.7708937      4.2256417     -1.3637382
C      -3.0893427      3.3964945     -1.5251659
H      -4.1684492      1.4648577     -1.2255923
H      -0.0584578      4.7151245     -2.2705751
C      -3.2864550      2.0523283     -1.4637940
H      -1.1810822      5.4480444     -1.0837038
C      -1.1103346      4.8857350     -2.0215919
N      -1.7629756      3.5921246     -1.8599015
H      -6.1572541     -1.5050374      1.7209737
H      -6.4798982      0.0426079      3.6587783
C      -5.3796790     -0.7814160      1.9714930
C      -5.5650397      0.0960241      3.0670474
N      -2.0766207      1.4574548     -1.7676744
H      -1.5960690      5.4424308     -2.8307757
C      -1.1701784      2.4112758     -1.9942153
C      -4.2283212     -0.7319548      1.2189330
C      -4.5909625      1.0178059      3.3722957
H      -1.5607743     -0.1103615     -3.8531641
H      -4.1020989     -1.4162483      0.3786403
H      -4.7236259      1.7099337      4.2069649
C      -1.8044131      0.0459967     -1.7044057
C      -1.5533258     -0.6537571     -2.9077017
C      -3.1930688      0.1990008      1.5214890
C      -3.3959470      1.0984001      2.6093281
H      -0.1200026      2.2159313     -2.2065813
C      -1.9886719      0.2803525      0.7508568
C      -2.4014841      2.0793813      2.8858138
C      -1.8006658     -0.5598897     -0.4648249
C      -1.2904626     -1.9970568     -2.8553333
H      -2.5613343      2.7714097      3.7155110
H      -1.0785668     -2.5541696     -3.7696520
C      -1.2650197      2.1552463      2.1300965
C      -1.0352202      1.2493294      1.0522736
C      -1.5696417     -1.9725424     -0.4073526
C      -1.3007782     -2.6884520     -1.6103214
O       0.0950918      1.4122611      0.3578124
H      -0.4907779      2.8968778      2.3341027
C      -1.5599103     -2.6758836      0.8273406
C      -1.0335725     -4.0830515     -1.5413639
H      -1.7337926     -2.1243466      1.7527523
H      -0.8234306     -4.6219912     -2.4674102
C      -1.3073424     -4.0266121      0.8617079
C      -1.0393954     -4.7389544     -0.3334425
H      -1.2986062     -4.5516006      1.8182975
H      -0.8339567     -5.8095951     -0.2904925
H       4.1467563      2.8931353      0.7707412
C       3.9730841     -0.3341300      1.3917691
C       4.0518308     -1.4128904      0.4706708
C       3.7730299      0.5812352     -0.7216038
C       3.4372505      2.1507264      1.1641956
C       3.7404821     -0.9254565     -0.8607873
N       3.6917123      0.8461427      0.6119024
O       3.7964163      1.4098602     -1.6142567
O       4.0960985     -0.2593122      2.6104630
H       4.3645241     -2.4141811      0.7523258
H       3.5528832      2.0701842      2.2522118
H       4.2580928     -1.3080774     -1.7464597
H       2.4110615      2.4701130      0.9232010
          85

O       1.1172515      0.7170996     -2.3860410
C       1.7137599     -0.3315355     -2.4162601
O       2.2417641     -0.8300945     -3.5327418
C       2.2537258      0.0364932     -4.6701036
C       2.9425522     -0.6951775     -5.7966755
C       2.0583605     -1.1906956     -1.2369410
N       1.3255332     -0.8976062     -0.0714018
C       1.5551367     -1.7645142      0.8698904
C       1.1888449     -1.5826364      2.2806545
C       1.0273161     -0.3097418      2.8424914
C       0.6317903     -0.1725896      4.1709377
C       0.4280177     -1.3024599      4.9643703
C       0.6407516     -2.5755211      4.4282661
C       1.0254865     -2.7115049      3.0970808
H       1.2187569      0.3068799     -4.9268673
H       2.7825672      0.9581478     -4.3855541
H       2.9788494     -0.0582880     -6.6902817
H       2.4004623     -1.6176032     -6.0468606
H       3.9705896     -0.9588651     -5.5132169
H       0.5454826      0.5188682      0.0924202
H       2.0427811     -2.2537724     -1.5343491
H       1.8874115     -2.7788649      0.6038107
H       1.2229836      0.5677950      2.2264949
H       0.4902671      0.8243041      4.5924224
H       0.1180795     -1.1920439      6.0051279
H       0.5032710     -3.4620367      5.0497843
H       1.1850536     -3.7053003      2.6712798
H      -3.7712538      4.2258712     -1.3638116
C      -3.0897823      3.3966574     -1.5252438
H      -4.1691893      1.4651043     -1.2261395
H      -0.0585090      4.7150011     -2.2697423
C      -3.2870800      2.0525004     -1.4641014
H      -1.1813065      5.4478669     -1.0830154
C      -1.1104202      4.8857343     -2.0209940
N      -1.7633241      3.5921698     -1.8596627
H      -6.1578702     -1.5047072      1.7213874
H      -6.4800269      0.0429507      3.6592760
C      -5.3801730     -0.7811788      1.9718045
C      -5.5652507      0.0962573      3.0674074
N      -2.0773094      1.4574490     -1.7678066
H      -1.5958851      5.4426125     -2.8302085
C      -1.1707250      2.4112075     -1.9939752
C      -4.2289435     -0.7317889      1.2190411
C      -4.5909873      1.0179111      3.3725451
H      -1.5622840     -0.1105372     -3.8534108
H      -4.1029704     -1.4160321      0.3786549
H      -4.7234614      1.7100144      4.2072676
C      -1.8054751      0.0458934     -1.7046029
C      -1.5543264     -0.6538235     -2.9078854
C      -3.1935313      0.1990454      1.5214718
C      -3.3960589      1.0983934      2.6094050
H      -0.1205612      2.2164293     -2.2062928
C      -1.9892875      0.2802507      0.7506293
C      -2.4012351      2.0791460      2.8855897
C      -1.8016353     -0.5599629     -0.4650252
C      -1.2909408     -1.9970353     -2.8555606
H      -2.5607414      2.7712626      3.7152882
H      -1.0792718     -2.5541612     -3.7699260
C      -1.2648592      2.1547809      2.1296351
C      -1.0351000      1.2487391      1.0516914
C      -1.5701959     -1.9725001     -0.4076096
C      -1.3007756     -2.6883537     -1.6105312
O       0.0950100      1.4108702      0.3571109
H      -0.4905081      2.8963269      2.3335817
C      -1.5608122     -2.6760046      0.8270062
C      -1.0333177     -4.0829778     -1.5415859
H      -1.7358066     -2.1247241      1.7523466
H      -0.8231134     -4.6218642     -2.4676477
C      -1.3073921     -4.0265879      0.8613873
C      -1.0390004     -4.7389036     -0.3337047
H      -1.2988177     -4.5516421      1.8179462
H      -0.8332469     -5.8094747     -0.2906966
H       4.1570993      2.8907363      0.7736292
C       3.9748083     -0.3399848      1.3913970
C       4.0400983     -1.4146713      0.4734820
C       3.7635335      0.5843857     -0.7208176
C       3.4449167      2.1501516      1.1658994
C       3.7061243     -0.9244362     -0.8656783
N       3.6918425      0.8458892      0.6106405
O       3.7918395      1.4116017     -1.6155479
O       4.1027688     -0.2576986      2.6108692
H       4.3471478     -2.4193849      0.7490065
H       3.5613738      2.0658695      2.2535503
H       4.2545806     -1.2940736     -1.7408846
H       2.4198455      2.4747365      0.9265851
          85

O       1.1117468      0.7004205     -2.3818547
C       1.7262207     -0.3369281     -2.4166011
O       2.2568928     -0.8291115     -3.5339920
C       2.2476844      0.0329346     -4.6752686
C       2.9422144     -0.6935203     -5.8018159
C       2.0758845     -1.1906768     -1.2345647
N       1.3306805     -0.8908446     -0.0736620
C       1.5535866     -1.7581653      0.8681669
C       1.1837891     -1.5789124      2.2784603
C       1.0247698     -0.3069716      2.8424757
C       0.6325810     -0.1719627      4.1721141
C       0.4301130     -1.3032348      4.9638126
C       0.6398226     -2.5757345      4.4250266
C       1.0205692     -2.7096077      3.0925499
H       1.2068505      0.2854461     -4.9267422
H       2.7636214      0.9641367     -4.3979854
H       2.9735909     -0.0570876     -6.6959072
H       2.4083029     -1.6208858     -6.0513527
H       3.9723142     -0.9480221     -5.5173959
H       0.5473285      0.5173456      0.0892254
H       2.0581518     -2.2514181     -1.5263376
H       1.8823020     -2.7739459      0.6030233
H       1.2212646      0.5711756      2.2275329
H       0.4934454      0.8241917      4.5961172
H       0.1237348     -1.1943584      6.0057886
H       0.5036508     -3.4630713      5.0456499
H       1.1789043     -3.7025889      2.6644191
H      -3.7714961      4.2264989     -1.3640494
C      -3.0904335      3.3969397     -1.5254548
H      -4.1710117      1.4658651     -1.2274436
H      -0.0584455      4.7146818     -2.2678554
C      -3.2885013      2.0528829     -1.4648446
H      -1.1818244      5.4471122     -1.0813787
C      -1.1104686      4.8854064     -2.0195808
N      -1.7636847      3.5918506     -1.8591524
H      -6.1593031     -1.5037590      1.7224574
H      -6.4800501      0.0439202      3.6606094
C      -5.3812705     -0.7804729      1.9725507
C      -5.5655411      0.0969542      3.0682993
N      -2.0789366      1.4572665     -1.7681827
H      -1.5954830      5.4427062     -2.8287809
C      -1.1716083      2.4105146     -1.9935637
C      -4.2303768     -0.7313392      1.2192245
C      -4.5907762      1.0182686      3.3730345
H      -1.5656290     -0.1107821     -3.8540940
H      -4.1049919     -1.4155567      0.3787131
H      -4.7226473      1.7103351      4.2078923
C      -1.8078052      0.0455572     -1.7052361
C      -1.5568133     -0.6540283     -2.9085633
C      -3.1944512      0.1991124      1.5212305
C      -3.3961374      1.0983960      2.6093632
H      -0.1214863      2.2153510     -2.2057697
C      -1.9904569      0.2798218      0.7499291
C      -2.4005128      2.0785849      2.8849456
C      -1.8034947     -0.5602886     -0.4657248
C      -1.2921504     -1.9969603     -2.8562753
H      -2.5592375      2.7708989      3.7146418
H      -1.0805558     -2.5540377     -3.7706960
C      -1.2643620      2.1535559      2.1285640
C      -1.0350141      1.2474193      1.0503927
C      -1.5712009     -1.9726216     -0.4083445
C      -1.3008295     -2.6882022     -1.6112091
O       0.0947095      1.4090374      0.3557216
H      -0.4896328      2.8947917      2.3322581
C      -1.5624104     -2.6763071      0.8261580
C      -1.0323822     -4.0826466     -1.5422210
H      -1.7389862     -2.1253480      1.7513686
H      -0.8215899     -4.6213695     -2.4682467
C      -1.3077993     -4.0266743      0.8605778
C      -1.0380278     -4.7386624     -0.3343871
H      -1.2996898     -4.5518821      1.8170567
H      -0.8314850     -5.8090817     -0.2913501
H       4.1827742      2.8858233      0.7808391
C       3.9783219     -0.3425281      1.3932092
C       4.0263043     -1.4165127      0.4769602
C       3.7524165      0.5881737     -0.7174086
C       3.4635733      2.1517702      1.1729008
C       3.6903348     -0.9213397     -0.8645526
N       3.6935191      0.8465917      0.6135802
O       3.7780952      1.4148552     -1.6132355
O       4.1188339     -0.2565742      2.6116223
H       4.3268626     -2.4243182      0.7481549
H       3.5822859      2.0626825      2.2598938
H       4.2471978     -1.2847421     -1.7345524
H       2.4415175      2.4884751      0.9371641
          85

O       1.1022556      0.6864125     -2.3879254
C       1.7289859     -0.3427121     -2.4206017
O       2.2729960     -0.8274321     -3.5343068
C       2.2425409      0.0283180     -4.6799698
C       2.9417868     -0.6910018     -5.8080837
C       2.0829895     -1.1928642     -1.2348561
N       1.3287822     -0.8891100     -0.0771501
C       1.5513335     -1.7539035      0.8661326
C       1.1804241     -1.5738598      2.2763771
C       1.0236899     -0.3028922      2.8429867
C       0.6341257     -0.1708060      4.1738876
C       0.4318657     -1.3036929      4.9633214
C       0.6375975     -2.5752804      4.4209455
C       1.0155570     -2.7061885      3.0875636
H       1.1959855      0.2617747     -4.9255218
H       2.7440227      0.9696414     -4.4106282
H       2.9581937     -0.0566301     -6.7040867
H       2.4208902     -1.6272315     -6.0520079
H       3.9773396     -0.9286724     -5.5288973
H       0.5472909      0.5161398      0.0861020
H       2.0404896     -2.2612875     -1.5296059
H       1.8789745     -2.7707115      0.6033049
H       1.2204953      0.5763608      2.2296154
H       0.4972548      0.8244261      4.6007525
H       0.1283460     -1.1967846      6.0063254
H       0.5010200     -3.4639610      5.0395132
H       1.1715611     -3.6982152      2.6564570
H      -3.7712651      4.2272800     -1.3642228
C      -3.0909201      3.3971529     -1.5257131
H      -4.1734322      1.4668989     -1.2293255
H      -0.0578417      4.7135413     -2.2654601
C      -3.2902809      2.0532619     -1.4659430
H      -1.1818936      5.4456091     -1.0793382
C      -1.1099775      4.8844466     -2.0177898
N      -1.7638146      3.5910707     -1.8585058
H      -6.1610085     -1.5022471      1.7237546
H      -6.4798052      0.0453716      3.6623142
C      -5.3824834     -0.7793475      1.9734425
C      -5.5656618      0.0980294      3.0694077
N      -2.0810898      1.4567483     -1.7689359
H      -1.5942891      5.4423012     -2.8270350
C      -1.1726894      2.4092535     -1.9931894
C      -4.2320257     -0.7306746      1.2193614
C      -4.5902194      1.0188343      3.3735645
H      -1.5704042     -0.1114569     -3.8553244
H      -4.1075395     -1.4148710      0.3786807
H      -4.7211720      1.7108852      4.2085826
C      -1.8109020      0.0448753     -1.7063226
C      -1.5605994     -0.6546709     -2.9097890
C      -3.1953644      0.1991936      1.5207747
C      -3.3960233      1.0984092      2.6091562
H      -0.1227211      2.2129675     -2.2048309
C      -1.9916465      0.2793343      0.7488658
C      -2.3996194      2.0779284      2.8843367
C      -1.8056937     -0.5608564     -0.4668327
C      -1.2943729     -1.9972518     -2.8575355
H      -2.5574620      2.7702192      3.7142225
H      -1.0828548     -2.5542846     -3.7720160
C      -1.2638391      2.1522968      2.1274158
C      -1.0353010      1.2463733      1.0487906
C      -1.5727597     -1.9730548     -0.4095057
C      -1.3014567     -2.6883125     -1.6123393
O       0.0941445      1.4080386      0.3539731
H      -0.4885752      2.8930582      2.3308193
C      -1.5642171     -2.6768309      0.8249241
C      -1.0311302     -4.0823815     -1.5432260
H      -1.7420976     -2.1261367      1.7500252
H      -0.8192333     -4.6208466     -2.4691518
C      -1.3084974     -4.0269927      0.8593660
C      -1.0367821     -4.7384903     -0.3354362
H      -1.3009213     -4.5524165      1.8157311
H      -0.8289882     -5.8086616     -0.2923460
H       4.2118950      2.8814749      0.7887677
C       3.9861450     -0.3430254      1.3974742
C       4.0238777     -1.4155642      0.4823351
C       3.7463014      0.5911154     -0.7104381
C       3.4860008      2.1549124      1.1824493
C       3.6824849     -0.9203534     -0.8616141
N       3.6992516      0.8483232      0.6203051
O       3.7606169      1.4183820     -1.6060945
O       4.1360910     -0.2566620      2.6149373
H       4.3293034     -2.4224559      0.7512031
H       3.6078284      2.0626395      2.2687748
H       4.2635761     -1.2746605     -1.7270112
H       2.4673831      2.5039229      0.9506804
          85

O       1.0990061      0.6802175     -2.3889298
C       1.7321370     -0.3451340     -2.4211635
O       2.2812748     -0.8264109     -3.5340085
C       2.2401841      0.0263683     -4.6817226
C       2.9418477     -0.6898234     -5.8103865
C       2.0858711     -1.1936186     -1.2348835
N       1.3306274     -0.8884842     -0.0785932
C       1.5515790     -1.7523523      0.8658186
C       1.1790018     -1.5719353      2.2755432
C       1.0229941     -0.3013448      2.8432152
C       0.6345848     -0.1703698      4.1746325
C       0.4326545     -1.3038313      4.9633335
C       0.6367644     -2.5750772      4.4195323
C       1.0133822     -2.7048973      3.0857342
H       1.1907478      0.2504545     -4.9244352
H       2.7346169      0.9727454     -4.4165421
H       2.9522632     -0.0564668     -6.7072442
H       2.4267567     -1.6299156     -6.0520707
H       3.9795876     -0.9201820     -5.5329105
H       0.5471815      0.5161398      0.0843001
H       2.0475481     -2.2624783     -1.5274230
H       1.8792356     -2.7694660      0.6041791
H       1.2201028      0.5783505      2.2305138
H       0.4986954      0.8245319      4.6025915
H       0.1305702     -1.1976419      6.0068305
H       0.5002379     -3.4642590      5.0373931
H       1.1685445     -3.6965751      2.6535429
H      -3.7713468      4.2276971     -1.3643536
C      -3.0911570      3.3972212     -1.5258699
H      -4.1745297      1.4672177     -1.2301926
H      -0.0576206      4.7131763     -2.2642555
C      -3.2910109      2.0534127     -1.4664633
H      -1.1820084      5.4449624     -1.0782676
C      -1.1098194      4.8841130     -2.0168771
N      -1.7638916      3.5907755     -1.8582167
H      -6.1618274     -1.5015822      1.7243751
H      -6.4797616      0.0460202      3.6631071
C      -5.3830881     -0.7788470      1.9738746
C      -5.5657789      0.0985123      3.0699373
N      -2.0819531      1.4565575     -1.7692527
H      -1.5938083      5.4422776     -2.8261045
C      -1.1731025      2.4087595     -1.9930158
C      -4.2328265     -0.7303690      1.2194569
C      -4.5900348      1.0190852      3.3738543
H      -1.5721460     -0.1116874     -3.8557887
H      -4.1087108     -1.4145625      0.3787109
H      -4.7205842      1.7111165      4.2089533
C      -1.8121308      0.0446111     -1.7067651
C      -1.5620075     -0.6548974     -2.9102607
C      -3.1958488      0.1992502      1.5206099
C      -3.3960270      1.0984223      2.6091161
H      -0.1231512      2.2119019     -2.2043967
C      -1.9922512      0.2791230      0.7484244
C      -2.3992510      2.0776262      2.8840986
C      -1.8066442     -0.5610882     -0.4672831
C      -1.2951612     -1.9973348     -2.8579897
H      -2.5566753      2.7699228      3.7140597
H      -1.0836049     -2.5543476     -3.7724781
C      -1.2636236      2.1516969      2.1269368
C      -1.0354719      1.2458110      1.0481759
C      -1.5733770     -1.9732127     -0.4099410
C      -1.3016593     -2.6883327     -1.6127613
O       0.0939095      1.4075641      0.3532956
H      -0.4881089      2.8922301      2.3302194
C      -1.5650212     -2.6770455      0.8244511
C      -1.0306007     -4.0822467     -1.5435954
H      -1.7434904     -2.1264752      1.7495068
H      -0.8182201     -4.6205955     -2.4694787
C      -1.3088071     -4.0271150      0.8589070
C      -1.0362538     -4.7383952     -0.3358251
H      -1.3014512     -4.5526179      1.8152300
H      -0.8279195     -5.8084617     -0.2927145
H       4.2242255      2.8797117      0.7917864
C       3.9894517     -0.3421097      1.3991347
C       4.0249452     -1.4146498      0.4838504
C       3.7447914      0.5927924     -0.7080009
C       3.4951039      2.1566866      1.1862125
C       3.6856617     -0.9185440     -0.8596257
N       3.7006941      0.8492992      0.6229075
O       3.7536328      1.4202667     -1.6036408
O       4.1433142     -0.2559486      2.6160995
H       4.3300224     -2.4217777      0.7522464
H       3.6183051      2.0631048      2.2722622
H       4.2664319     -1.2719368     -1.7253596
H       2.4780318      2.5113999      0.9562291
