          85

O       0.7046611     -1.5775825      0.7242198
C       1.4489301     -0.9509535      1.4629655
O       1.7978191     -1.4334436      2.6817806
C       1.3068339     -2.7270240      3.0005653
C       1.8840902     -3.1292028      4.3385357
C       2.0846758      0.3032252      1.1839174
N       1.8754370      0.9224266      0.0138934
C       2.5157994      2.0359637     -0.2255451
C       2.4449512      2.7764141     -1.4801425
C       1.9307589      2.2188180     -2.6638878
C       1.8452304      2.9811995     -3.8242007
C       2.2838466      4.3088981     -3.8392522
C       2.8253500      4.8630212     -2.6776424
C       2.9097905      4.1012573     -1.5142356
H       0.2039814     -2.7028181      3.0315812
H       1.5954434     -3.4258750      2.2014699
H       1.5133479     -4.1216178      4.6286225
H       1.5973177     -2.4076034      5.1165869
H       2.9809878     -3.1672805      4.2878212
H       0.5830173      0.1355109     -0.9517279
H       2.6220854      0.7976335      1.9994205
H       3.0754159      2.5185377      0.5908251
H       1.5852973      1.1850582     -2.6600956
H       1.4369534      2.5339993     -4.7331154
H       2.2145944      4.9021883     -4.7527956
H       3.1823216      5.8949900     -2.6783991
H       3.3230678      4.5417703     -0.6029821
H      -3.0358827     -4.4899528      1.2081431
C      -2.8819491     -3.4678877      1.5398659
H      -1.1559489     -2.5564371      0.4353507
H      -5.1275022     -2.8820402      4.0068972
C      -1.9752331     -2.5311169      1.1459481
H      -4.4259874     -4.4905427      3.6508109
C      -4.7681306     -3.5456820      3.2145299
N      -3.6529642     -2.8996057      2.5330274
H      -6.4352163     -0.1143504      0.8989329
H      -7.2365847     -1.5185405     -1.0118370
C      -5.7294194     -0.4435574      0.1339781
C      -6.1865859     -1.2294665     -0.9500601
N      -2.2130633     -1.4049423      1.9105368
H      -5.5726579     -3.7350293      2.4944101
C      -3.2356062     -1.6561655      2.7351273
C      -4.4061529     -0.0714594      0.2248731
C      -5.2999000     -1.6047479     -1.9327636
H      -1.1333481     -0.0920135      3.9191873
H      -4.0817927      0.5629970      1.0519571
H      -5.6358861     -2.1931643     -2.7896469
C      -1.5972970     -0.1093406      1.7998742
C      -1.1022149      0.4744895      2.9871096
C      -3.4542569     -0.4757750     -0.7554774
C      -3.9310783     -1.2382333     -1.8614948
H      -3.6658368     -0.9471889      3.4389796
C      -2.0596820     -0.1430247     -0.6555044
C      -3.0090304     -1.6124614     -2.8806315
C      -1.5500103      0.5291440      0.5714100
C      -0.5582366      1.7335283      2.9415455
H      -3.3684364     -2.1934497     -3.7326554
H      -0.1549302      2.1905686      3.8468808
C      -1.6966628     -1.2485088     -2.7989909
C      -1.1916091     -0.5093608     -1.6827997
C      -1.0125282      1.8549016      0.5285499
C      -0.5082758      2.4546558      1.7208663
O       0.1059989     -0.2412076     -1.7497205
H      -0.9797488     -1.5228320     -3.5739361
C      -0.9682245      2.6010406     -0.6827249
C       0.0415357      3.7651409      1.6602644
H      -1.3459070      2.1481369     -1.6001146
H       0.4359418      4.2086908      2.5769234
C      -0.4446888      3.8699267     -0.7060250
C       0.0703181      4.4588921      0.4754552
H      -0.3936136      4.4184899     -1.6485817
H       0.4985713      5.4617348      0.4355526
H       3.5335005     -2.4139647     -2.9686887
C       4.5260718      0.3408326     -1.5484731
C       4.8962726      0.5212776     -0.1293887
C       3.7213299     -1.4544946     -0.3671489
C       3.1860180     -1.3838996     -2.8046451
C       4.3991696     -0.5231390      0.5820094
N       3.7687168     -0.8367757     -1.6052269
O       3.2476156     -2.5528625     -0.1613208
O       4.8248778      1.0036412     -2.5197141
H       5.5070850      1.3550825      0.2079685
H       3.5013756     -0.7498812     -3.6422464
H       4.5654584     -0.7936418      1.6217041
H       2.0886320     -1.3754975     -2.7293998
          85

O       0.6996780     -1.5725880      0.7303928
C       1.4503566     -0.9499663      1.4654651
O       1.8057651     -1.4356410      2.6808927
C       1.3060423     -2.7251482      3.0029912
C       1.8829893     -3.1299654      4.3402354
C       2.0882010      0.3025916      1.1828457
N       1.8746310      0.9223214      0.0142794
C       2.5176510      2.0341343     -0.2268826
C       2.4458806      2.7748849     -1.4813632
C       1.9325887      2.2172721     -2.6654252
C       1.8463709      2.9805317     -3.8251906
C       2.2834561      4.3087289     -3.8390879
C       2.8243262      4.8626932     -2.6771077
C       2.9094781      4.1001175     -1.5143564
H       0.2035621     -2.6922846      3.0362703
H       1.5873391     -3.4272364      2.2042025
H       1.5045560     -4.1187632      4.6325810
H       1.6039112     -2.4048720      5.1177530
H       2.9793592     -3.1774097      4.2873098
H       0.5822375      0.1367949     -0.9507748
H       2.6285264      0.7981172      1.9977532
H       3.0777154      2.5169021      0.5889668
H       1.5884934      1.1830148     -2.6622231
H       1.4388137      2.5336479     -4.7345734
H       2.2136050      4.9026103     -4.7521997
H       3.1801797      5.8950379     -2.6771148
H       3.3221855      4.5402614     -0.6026777
H      -3.0381002     -4.4898555      1.2075369
C      -2.8838951     -3.4679208      1.5395360
H      -1.1595250     -2.5560278      0.4332259
H      -5.1269214     -2.8831078      4.0090666
C      -1.9776859     -2.5309227      1.1450327
H      -4.4249216     -4.4913583      3.6524233
C      -4.7680153     -3.5467013      3.2164470
N      -3.6539027     -2.9001057      2.5337292
H      -6.4370035     -0.1154286      0.8973035
H      -7.2371866     -1.5197925     -1.0138330
C      -5.7308052     -0.4443827      0.1326124
C      -6.1872962     -1.2304128     -0.9516262
N      -2.2148172     -1.4050276      1.9102796
H      -5.5732026     -3.7364891      2.4971926
C      -3.2364752     -1.6566927      2.7358261
C      -4.4076888     -0.0719062      0.2240445
C      -5.3000814     -1.6054776     -1.9339462
H      -1.1331183     -0.0934760      3.9187750
H      -4.0838147      0.5625451      1.0513216
H      -5.6355499     -2.1940383     -2.7909362
C      -1.5989819     -0.1094375      1.7998558
C      -1.1022315      0.4733714      2.9868882
C      -3.4552967     -0.4758283     -0.7560042
C      -3.9314062     -1.2384938     -1.8621713
H      -3.6661998     -0.9480359      3.4402921
C      -2.0609341     -0.1424679     -0.6555667
C      -3.0087272     -1.6123402     -2.8808965
C      -1.5518213      0.5294357      0.5716375
C      -0.5569169      1.7318562      2.9414157
H      -3.3675080     -2.1935918     -3.7330086
H      -0.1522247      2.1880135      3.8465746
C      -1.6965533     -1.2477235     -2.7988300
C      -1.1920901     -0.5082306     -1.6825473
C      -1.0134042      1.8547696      0.5289595
C      -0.5075644      2.4535703      1.7210573
O       0.1052540     -0.2392610     -1.7491600
H      -0.9792322     -1.5217947     -3.5734874
C      -0.9695798      2.6013181     -0.6820955
C       0.0431693      3.7636762      1.6605236
H      -1.3485462      2.1490704     -1.5992690
H       0.4387035      4.2065766      2.5770082
C      -0.4450545      3.8697676     -0.7053361
C       0.0714099      4.4578627      0.4759735
H      -0.3944909      4.4187661     -1.6476674
H       0.5003141      5.4604283      0.4361061
H       3.5498082     -2.4148341     -2.9751942
C       4.5233345      0.3394927     -1.5493009
C       4.8846897      0.5217642     -0.1288524
C       3.7099887     -1.4541589     -0.3712102
C       3.1934810     -1.3878297     -2.8123840
C       4.3831713     -0.5221380      0.5811973
N       3.7643940     -0.8371770     -1.6092868
O       3.2341119     -2.5522656     -0.1678026
O       4.8289936      0.9998591     -2.5201109
H       5.4973624      1.3532456      0.2105050
H       3.5088297     -0.7508636     -3.6476751
H       4.5479514     -0.7947554      1.6209876
H       2.0959029     -1.3882312     -2.7437781
          85

O       0.6967478     -1.5635244      0.7388029
C       1.4583983     -0.9495134      1.4683694
O       1.8203541     -1.4385274      2.6791780
C       1.3063268     -2.7217938      3.0061203
C       1.8816036     -3.1311398      4.3424966
C       2.1070800      0.2986693      1.1784738
N       1.8771303      0.9213705      0.0128534
C       2.5223409      2.0312637     -0.2293823
C       2.4480103      2.7736308     -1.4832697
C       1.9355902      2.2156102     -2.6671999
C       1.8475319      2.9800449     -3.8261974
C       2.2822662      4.3089757     -3.8385018
C       2.8225349      4.8630873     -2.6763033
C       2.9093939      4.0994009     -1.5144621
H       0.2045108     -2.6748684      3.0418848
H       1.5769428     -3.4284400      2.2076789
H       1.4913962     -4.1146825      4.6370416
H       1.6132582     -2.4014856      5.1195047
H       2.9771443     -3.1925798      4.2871593
H       0.5823818      0.1378565     -0.9494193
H       2.6332390      0.8011900      1.9950305
H       3.0834257      2.5141203      0.5854973
H       1.5940125      1.1804557     -2.6644422
H       1.4407153      2.5335724     -4.7360845
H       2.2111516      4.9036237     -4.7510265
H       3.1765746      5.8960253     -2.6755709
H       3.3217234      4.5389946     -0.6023633
H      -3.0392261     -4.4899077      1.2069670
C      -2.8849546     -3.4680650      1.5392263
H      -1.1620785     -2.5560010      0.4314482
H      -5.1261975     -2.8842269      4.0106043
C      -1.9791063     -2.5308436      1.1444562
H      -4.4239843     -4.4922193      3.6531996
C      -4.7677846     -3.5476422      3.2176143
N      -3.6544362     -2.9006083      2.5340139
H      -6.4384576     -0.1164238      0.8958610
H      -7.2374265     -1.5210163     -1.0156115
C      -5.7318607     -0.4451030      0.1314215
C      -6.1876600     -1.2312723     -0.9530096
N      -2.2159696     -1.4051364      1.9100808
H      -5.5735270     -3.7376104      2.4990337
C      -3.2371001     -1.6571801      2.7361617
C      -4.4089013     -0.0721825      0.2233438
C      -5.2999544     -1.6060576     -1.9350072
H      -1.1314231     -0.0953478      3.9182862
H      -4.0855182      0.5623072      1.0507863
H      -5.6349243     -2.1947515     -2.7920995
C      -1.6000424     -0.1096158      1.7999095
C      -1.1007866      0.4718075      2.9865636
C      -3.4560651     -0.4757057     -0.7564409
C      -3.9314374     -1.2385412     -1.8627689
H      -3.6664526     -0.9487894      3.4411334
C      -2.0618596     -0.1418944     -0.6555135
C      -3.0081162     -1.6119002     -2.8811195
C      -1.5532003      0.5296257      0.5719510
C      -0.5537766      1.7295942      2.9410647
H      -3.3662940     -2.1932314     -3.7334318
H      -0.1473306      2.1847521      3.8459362
C      -1.6960869     -1.2467793     -2.7985753
C      -1.1921371     -0.5073712     -1.6819574
C      -1.0134448      1.8543261      0.5293042
C      -0.5055055      2.4520058      1.7210569
O       0.1053938     -0.2388155     -1.7476090
H      -0.9784161     -1.5206570     -3.5729843
C      -0.9705999      2.6013914     -0.6815021
C       0.0458219      3.7618853      1.6606389
H      -1.3513033      2.1499475     -1.5983415
H       0.4426351      4.2041349      2.5768752
C      -0.4452458      3.8694389     -0.7046647
C       0.0729397      4.4566275      0.4764297
H      -0.3957260      4.4190988     -1.6466680
H       0.5021214      5.4590744      0.4366087
H       3.5705970     -2.4166159     -2.9789370
C       4.5222816      0.3417605     -1.5465685
C       4.8666072      0.5289907     -0.1257814
C       3.6971317     -1.4508950     -0.3735209
C       3.2070472     -1.3915089     -2.8194296
C       4.3517983     -0.5121312      0.5852380
N       3.7627623     -0.8367289     -1.6113385
O       3.2218953     -2.5501890     -0.1722774
O       4.8366089      0.9967284     -2.5192330
H       5.4793067      1.3588601      0.2172610
H       3.5267311     -0.7528526     -3.6518002
H       4.5235962     -0.7920447      1.6215601
H       2.1087265     -1.3985453     -2.7616808
          85

O       0.6955342     -1.5536365      0.7457805
C       1.4679180     -0.9494129      1.4707091
O       1.8331020     -1.4413636      2.6777957
C       1.3058398     -2.7189604      3.0086396
C       1.8795563     -3.1325704      4.3441829
C       2.1300048      0.2919721      1.1716737
N       1.8806036      0.9191693      0.0112871
C       2.5272606      2.0276768     -0.2321193
C       2.4491827      2.7721973     -1.4850745
C       1.9373304      2.2142248     -2.6689301
C       1.8483760      2.9799396     -3.8271690
C       2.2819474      4.3091982     -3.8376986
C       2.8213066      4.8631866     -2.6750098
C       2.9088084      4.0983241     -1.5140811
H       0.2048206     -2.6591491      3.0464631
H       1.5670169     -3.4292369      2.2103234
H       1.4801514     -4.1120495      4.6398670
H       1.6196622     -2.3998962      5.1211887
H       2.9743006     -3.2049591      4.2868726
H       0.5825370      0.1383845     -0.9481239
H       2.6479932      0.8017875      1.9906890
H       3.0886612      2.5113179      0.5818191
H       1.5976952      1.1783840     -2.6668068
H       1.4423324      2.5342261     -4.7377411
H       2.2106451      4.9046127     -4.7497159
H       3.1742549      5.8964635     -2.6734168
H       3.3207920      4.5369670     -0.6013870
H      -3.0404339     -4.4898580      1.2063047
C      -2.8860219     -3.4681252      1.5388467
H      -1.1644430     -2.5559064      0.4297146
H      -5.1254489     -2.8849580      4.0120738
C      -1.9804416     -2.5307208      1.1438518
H      -4.4232389     -4.4928168      3.6540332
C      -4.7676109     -3.5483044      3.2187683
N      -3.6549336     -2.9010030      2.5342574
H      -6.4396575     -0.1169631      0.8947434
H      -7.2377300     -1.5218041     -1.0169170
C      -5.7327585     -0.4455366      0.1305401
C      -6.1880402     -1.2318504     -0.9540064
N      -2.2170057     -1.4052198      1.9098631
H      -5.5739210     -3.7383911      2.5008634
C      -3.2376007     -1.6575985      2.7364862
C      -4.4099026     -0.0723725      0.2228255
C      -5.2999773     -1.6065557     -1.9357310
H      -1.1302517     -0.0968790      3.9178005
H      -4.0868579      0.5621991      1.0503372
H      -5.6346223     -2.1953790     -2.7928598
C      -1.6010728     -0.1097575      1.7998630
C      -1.0997263      0.4704896      2.9861915
C      -3.4567780     -0.4756999     -0.7567549
C      -3.9315537     -1.2387019     -1.8631753
H      -3.6665211     -0.9494617      3.4419813
C      -2.0627463     -0.1414456     -0.6555185
C      -3.0076742     -1.6116913     -2.8811946
C      -1.5544940      0.5297616      0.5721234
C      -0.5513683      1.7277115      2.9406994
H      -3.3653171     -2.1932108     -3.7336034
H      -0.1436151      2.1821114      3.8453555
C      -1.6957825     -1.2460023     -2.7983535
C      -1.1923037     -0.5064282     -1.6815902
C      -1.0136112      1.8538970      0.5294844
C      -0.5040076      2.4506785      1.7209648
O       0.1052009     -0.2374726     -1.7466176
H      -0.9778211     -1.5196833     -3.5725630
C      -0.9717735      2.6014422     -0.6810930
C       0.0474632      3.7605260      1.6607388
H      -1.3539059      2.1506570     -1.5976475
H       0.4451581      4.2023163      2.5768025
C      -0.4459096      3.8692121     -0.7041327
C       0.0735853      4.4557146      0.4768217
H      -0.3973654      4.4194863     -1.6458287
H       0.5027680      5.4581622      0.4370716
H       3.5898955     -2.4173824     -2.9827578
C       4.5210797      0.3441279     -1.5434990
C       4.8478973      0.5373745     -0.1230435
C       3.6852695     -1.4479281     -0.3750774
C       3.2187228     -1.3946723     -2.8246083
C       4.3194329     -0.5011753      0.5891427
N       3.7613827     -0.8366778     -1.6124454
O       3.2120955     -2.5490438     -0.1753994
O       4.8434345      0.9930558     -2.5184992
H       5.4626461      1.3641240      0.2233985
H       3.5403456     -0.7531619     -3.6540505
H       4.5007365     -0.7888278      1.6218879
H       2.1199660     -1.4091899     -2.7752567
          85

O       0.6957698     -1.5425493      0.7511918
C       1.4786983     -0.9499411      1.4725695
O       1.8431707     -1.4437095      2.6771578
C       1.3047384     -2.7167206      3.0105784
C       1.8774626     -3.1337523      4.3452562
C       2.1589948      0.2832907      1.1639632
N       1.8847909      0.9160502      0.0093076
C       2.5311932      2.0238030     -0.2346931
C       2.4488938      2.7707742     -1.4865754
C       1.9376856      2.2130212     -2.6704039
C       1.8489857      2.9799710     -3.8280287
C       2.2824657      4.3091911     -3.8366720
C       2.8206457      4.8628601     -2.6732790
C       2.9075388      4.0968863     -1.5131469
H       0.2045179     -2.6462020      3.0498854
H       1.5584244     -3.4293759      2.2119948
H       1.4722855     -4.1107173      4.6412797
H       1.6231496     -2.3995249      5.1226020
H       2.9716119     -3.2130557      4.2862992
H       0.5830412      0.1381442     -0.9468851
H       2.6581207      0.8029128      1.9868204
H       3.0935086      2.5081658      0.5779749
H       1.5994451      1.1766978     -2.6690125
H       1.4439296      2.5352352     -4.7394819
H       2.2120398      4.9052616     -4.7483405
H       3.1733768      5.8961707     -2.6708032
H       3.3192336      4.5342468     -0.5997304
H      -3.0418839     -4.4897184      1.2055516
C      -2.8872011     -3.4681249      1.5384111
H      -1.1667986     -2.5558153      0.4279041
H      -5.1247532     -2.8853137      4.0135129
C      -1.9817805     -2.5306065      1.1432005
H      -4.4227416     -4.4931641      3.6549963
C      -4.7675455     -3.5487068      3.2199641
N      -3.6554287     -2.9013090      2.5345272
H      -6.4405427     -0.1172027      0.8939614
H      -7.2380586     -1.5221564     -1.0178276
C      -5.7334499     -0.4457595      0.1299319
C      -6.1883968     -1.2321538     -0.9546897
N      -2.2179362     -1.4053213      1.9096379
H      -5.5744147     -3.7388535      2.5027114
C      -3.2379538     -1.6579871      2.7368738
C      -4.4106523     -0.0724911      0.2224406
C      -5.3000921     -1.6069531     -1.9361909
H      -1.1296579     -0.0980812      3.9173248
H      -4.0878212      0.5621713      1.0499644
H      -5.6345685     -2.1958921     -2.7933062
C      -1.6021162     -0.1098742      1.7997028
C      -1.0991291      0.4694140      2.9857813
C      -3.4573914     -0.4757154     -0.7570367
C      -3.9317146     -1.2389401     -1.8634440
H      -3.6663521     -0.9500753      3.4429206
C      -2.0635364     -0.1410358     -0.6556592
C      -3.0073413     -1.6116636     -2.8811766
C      -1.5557214      0.5298712      0.5721423
C      -0.5497835      1.7262291      2.9403666
H      -3.3645266     -2.1934857     -3.7335751
H      -0.1411698      2.1800814      3.8449000
C      -1.6955952     -1.2453226     -2.7982490
C      -1.1924007     -0.5055080     -1.6814183
C      -1.0139399      1.8535419      0.5295424
C      -0.5031041      2.4496344      1.7208301
O       0.1049203     -0.2360283     -1.7458995
H      -0.9774158     -1.5188526     -3.5723056
C      -0.9730067      2.6015314     -0.6808345
C       0.0482910      3.7595552      1.6608645
H      -1.3562886      2.1512841     -1.5971582
H       0.4465221      4.2010312      2.5768331
C      -0.4467550      3.8690669     -0.7037181
C       0.0737248      4.4550431      0.4771707
H      -0.3989934      4.4198748     -1.6451429
H       0.5028352      5.4575237      0.4375031
H       3.6056922     -2.4174662     -2.9863260
C       4.5205681      0.3466869     -1.5399138
C       4.8311207      0.5454831     -0.1211668
C       3.6748236     -1.4456189     -0.3765836
C       3.2283157     -1.3969136     -2.8283778
C       4.2864252     -0.4894415      0.5935629
N       3.7604746     -0.8371079     -1.6127875
O       3.2045599     -2.5487759     -0.1777594
O       4.8490350      0.9894197     -2.5182500
H       5.4481335      1.3688043      0.2288735
H       3.5513271     -0.7524380     -3.6549936
H       4.4824030     -0.7875730      1.6207794
H       2.1292920     -1.4178152     -2.7855862
          85

O       0.6976717     -1.5304431      0.7546413
C       1.4907717     -0.9505719      1.4734850
O       1.8496212     -1.4458642      2.6766997
C       1.3028013     -2.7157709      3.0119842
C       1.8759343     -3.1341949      4.3459607
C       2.1933862      0.2722177      1.1551205
N       1.8889771      0.9121373      0.0081615
C       2.5328083      2.0202127     -0.2367536
C       2.4469970      2.7693627     -1.4879048
C       1.9371114      2.2119599     -2.6720574
C       1.8494812      2.9801622     -3.8291365
C       2.2834010      4.3091506     -3.8355374
C       2.8205881      4.8621014     -2.6713289
C       2.9059569      4.0950186     -1.5119452
H       0.2032933     -2.6374294      3.0525936
H       1.5513865     -3.4298450      2.2130898
H       1.4686836     -4.1100574      4.6426670
H       1.6246524     -2.3991236      5.1234495
H       2.9697499     -3.2162386      4.2851227
H       0.5836219      0.1387413     -0.9462836
H       2.6742987      0.8031193      1.9832220
H       3.0963915      2.5056784      0.5741925
H       1.5999700      1.1752771     -2.6716732
H       1.4456644      2.5365894     -4.7416583
H       2.2143728      4.9060253     -4.7467968
H       3.1738602      5.8951803     -2.6679434
H       3.3173935      4.5308263     -0.5976927
H      -3.0437889     -4.4895732      1.2047956
C      -2.8886604     -3.4681444      1.5379743
H      -1.1695034     -2.5559948      0.4258116
H      -5.1243027     -2.8854553      4.0149101
C      -1.9833688     -2.5305890      1.1423919
H      -4.4225448     -4.4933719      3.6560887
C      -4.7676491     -3.5489599      3.2212088
N      -3.6559421     -2.9015798      2.5349501
H      -6.4411331     -0.1171818      0.8934311
H      -7.2384405     -1.5221352     -1.0184608
C      -5.7339559     -0.4458277      0.1295227
C      -6.1887628     -1.2322303     -0.9551516
N      -2.2188052     -1.4055050      1.9093505
H      -5.5749629     -3.7391253      2.5044709
C      -3.2381318     -1.6583967      2.7373886
C      -4.4111642     -0.0726288      0.2221538
C      -5.3003433     -1.6072371     -1.9364900
H      -1.1295067     -0.0989792      3.9168606
H      -4.0884373      0.5621171      1.0496492
H      -5.6347808     -2.1962387     -2.7935727
C      -1.6030659     -0.1100454      1.7994336
C      -1.0989082      0.4685753      2.9853455
C      -3.4578967     -0.4758376     -0.7573027
C      -3.9319305     -1.2392522     -1.8636360
H      -3.6658175     -0.9506830      3.4440768
C      -2.0641719     -0.1406864     -0.6559516
C      -3.0071644     -1.6119150     -2.8810728
C      -1.5567793      0.5299380      0.5720342
C      -0.5489361      1.7251607      2.9401028
H      -3.3639313     -2.1941720     -3.7333470
H      -0.1398725      2.1786391      3.8446095
C      -1.6955389     -1.2448774     -2.7982404
C      -1.1926422     -0.5044833     -1.6816029
C      -1.0144624      1.8532992      0.5295572
C      -0.5027687      2.4489175      1.7207248
O       0.1047020     -0.2341701     -1.7457933
H      -0.9772940     -1.5183986     -3.5722478
C      -0.9742294      2.6016460     -0.6806587
C       0.0485386      3.7589189      1.6610183
H      -1.3584071      2.1518798     -1.5968280
H       0.4470931      4.2001752      2.5769364
C      -0.4475774      3.8689457     -0.7034018
C       0.0736838      4.4545187      0.4774474
H      -0.4003296      4.4201371     -1.6446270
H       0.5028313      5.4569839      0.4378160
H       3.6194894     -2.4168566     -2.9898307
C       4.5201626      0.3494874     -1.5354353
C       4.8165112      0.5541953     -0.1199262
C       3.6659945     -1.4440870     -0.3774918
C       3.2359217     -1.3986698     -2.8307752
C       4.2558749     -0.4776548      0.5983389
N       3.7588927     -0.8376967     -1.6118722
O       3.1975861     -2.5491495     -0.1798339
O       4.8534342      0.9853979     -2.5179237
H       5.4356150      1.3745042      0.2332182
H       3.5590865     -0.7502628     -3.6543133
H       4.4696288     -0.7867460      1.6189506
H       2.1367644     -1.4258622     -2.7935348
          85

O       0.6971524     -1.5260770      0.7550982
C       1.4962057     -0.9547245      1.4719833
O       1.8502765     -1.4480078      2.6752613
C       1.2999834     -2.7166894      3.0129580
C       1.8749046     -3.1343438      4.3462779
C       2.2181500      0.2600387      1.1442723
N       1.8880157      0.9080243      0.0040952
C       2.5315639      2.0155634     -0.2390649
C       2.4447688      2.7679976     -1.4892846
C       1.9361025      2.2110268     -2.6736600
C       1.8497227      2.9801776     -3.8303429
C       2.2843518      4.3088298     -3.8348298
C       2.8207500      4.8610880     -2.6699202
C       2.9044835      4.0930457     -1.5110223
H       0.2009254     -2.6346600      3.0548634
H       1.5460919     -3.4313996      2.2138988
H       1.4679546     -4.1099654      4.6440828
H       1.6249204     -2.3987667      5.1236577
H       2.9685717     -3.2166485      4.2835724
H       0.5852886      0.1407251     -0.9476435
H       2.6711441      0.8044773      1.9818653
H       3.0953056      2.5008146      0.5717604
H       1.5995539      1.1741645     -2.6740489
H       1.4469105      2.5376471     -4.7437662
H       2.2166978      4.9063782     -4.7457637
H       3.1748021      5.8938536     -2.6658055
H       3.3158090      4.5274672     -0.5960769
H      -3.0457663     -4.4895155      1.2041644
C      -2.8901249     -3.4682629      1.5376566
H      -1.1728369     -2.5563496      0.4231829
H      -5.1241440     -2.8855718      4.0160452
C      -1.9851274     -2.5306939      1.1414772
H      -4.4225637     -4.4935621      3.6570800
C      -4.7678393     -3.5491807      3.2222783
N      -3.6564064     -2.9018665      2.5354578
H      -6.4415930     -0.1170486      0.8930355
H      -7.2388812     -1.5219703     -1.0188774
C      -5.7343890     -0.4458287      0.1292103
C      -6.1891711     -1.2322102     -0.9554694
N      -2.2196141     -1.4057741      1.9090159
H      -5.5754213     -3.7393593      2.5058528
C      -3.2382496     -1.6588205      2.7378950
C      -4.4115634     -0.0727736      0.2219129
C      -5.3006833     -1.6074150     -1.9367029
H      -1.1298279     -0.0996565      3.9164786
H      -4.0889032      0.5620442      1.0493785
H      -5.6351369     -2.1964390     -2.7937649
C      -1.6040077     -0.1102598      1.7991063
C      -1.0991332      0.4679185      2.9849700
C      -3.4583105     -0.4760493     -0.7575264
C      -3.9322534     -1.2395580     -1.8637882
H      -3.6652001     -0.9512613      3.4451839
C      -2.0646858     -0.1405857     -0.6563169
C      -3.0072567     -1.6122808     -2.8810540
C      -1.5577479      0.5298969      0.5718013
C      -0.5489489      1.7244517      2.9399536
H      -3.3638380     -2.1948566     -3.7331937
H      -0.1397653      2.1777177      3.8445036
C      -1.6957245     -1.2448673     -2.7983416
C      -1.1927793     -0.5037652     -1.6820221
C      -1.0152365      1.8531232      0.5295568
C      -0.5030400      2.4484240      1.7206670
O       0.1040506     -0.2323176     -1.7467037
H      -0.9774301     -1.5183774     -3.5723054
C      -0.9754708      2.6017097     -0.6805576
C       0.0483121      3.7584483      1.6611660
H      -1.3603101      2.1522462     -1.5965858
H       0.4470054      4.1995837      2.5770700
C      -0.4483469      3.8687540     -0.7032141
C       0.0735116      4.4540092      0.4776245
H      -0.4013862      4.4202200     -1.6442936
H       0.5028099      5.4564120      0.4380054
H       3.6274656     -2.4169016     -2.9961109
C       4.5180257      0.3499941     -1.5314585
C       4.7987365      0.5587273     -0.1190544
C       3.6531085     -1.4449485     -0.3804761
C       3.2388327     -1.4010010     -2.8341277
C       4.2147553     -0.4673646      0.6026880
N       3.7554354     -0.8408119     -1.6125211
O       3.1898627     -2.5528380     -0.1830419
O       4.8550197      0.9804704     -2.5176814
H       5.4219462      1.3736491      0.2388966
H       3.5610425     -0.7482609     -3.6546431
H       4.4489525     -0.7906095      1.6156191
H       2.1396528     -1.4339067     -2.7998624
          85

O       0.6964656     -1.5217880      0.7543437
C       1.5007487     -0.9601752      1.4701570
O       1.8483391     -1.4500524      2.6741388
C       1.2966269     -2.7184309      3.0137223
C       1.8744647     -3.1337697      4.3463590
C       2.2439105      0.2464074      1.1339439
N       1.8876316      0.9039726      0.0004199
C       2.5288263      2.0114920     -0.2404479
C       2.4415000      2.7667468     -1.4906594
C       1.9347003      2.2101716     -2.6755343
C       1.8500642      2.9804099     -3.8318645
C       2.2853580      4.3087465     -3.8343343
C       2.8213670      4.8599914     -2.6687701
C       2.9030107      4.0908076     -1.5104002
H       0.1978582     -2.6348534      3.0568133
H       1.5418296     -3.4331175      2.2143938
H       1.4699710     -4.1098030      4.6459851
H       1.6244870     -2.3977102      5.1232342
H       2.9681140     -3.2139106      4.2813442
H       0.5869240      0.1416128     -0.9488790
H       2.6586155      0.8044785      1.9824521
H       3.0940819      2.4966501      0.5692908
H       1.5985488      1.1731867     -2.6769230
H       1.4484355      2.5390159     -4.7463063
H       2.2189763      4.9071004     -4.7448515
H       3.1767661      5.8922383     -2.6638071
H       3.3146032      4.5236276     -0.5948338
H      -3.0479641     -4.4894651      1.2035511
C      -2.8917264     -3.4684043      1.5373683
H      -1.1765650     -2.5568395      0.4202343
H      -5.1241636     -2.8856464      4.0171468
C      -1.9870623     -2.5308442      1.1404717
H      -4.4226904     -4.4937207      3.6581970
C      -4.7680989     -3.5493934      3.2233925
N      -3.6568638     -2.9021651      2.5360883
H      -6.4419952     -0.1166834      0.8926052
H      -7.2393884     -1.5216611     -1.0192240
C      -5.7347983     -0.4457025      0.1288776
C      -6.1896305     -1.2320932     -0.9557555
N      -2.2204263     -1.4060743      1.9086477
H      -5.5758478     -3.7396226      2.5071755
C      -3.2382886     -1.6592734      2.7384872
C      -4.4119042     -0.0729143      0.2216507
C      -5.3011142     -1.6075520     -1.9368935
H      -1.1302818     -0.1002133      3.9161032
H      -4.0892862      0.5619693      1.0490800
H      -5.6356280     -2.1965913     -2.7939215
C      -1.6049701     -0.1104766      1.7987502
C      -1.0995786      0.4673806      2.9845980
C      -3.4586850     -0.4763647     -0.7577437
C      -3.9326356     -1.2398756     -1.8639592
H      -3.6644228     -0.9518487      3.4464086
C      -2.0651357     -0.1406460     -0.6567002
C      -3.0074832     -1.6126653     -2.8811133
C      -1.5587205      0.5298687      0.5715379
C      -0.5494545      1.7239824      2.9398820
H      -3.3639598     -2.1954719     -3.7331442
H      -0.1403136      2.1770609      3.8445365
C      -1.6959821     -1.2450667     -2.7984976
C      -1.1929561     -0.5032303     -1.6825414
C      -1.0162139      1.8530819      0.5296025
C      -0.5037172      2.4481835      1.7206932
O       0.1032810     -0.2301400     -1.7479423
H      -0.9776651     -1.5186146     -3.5724266
C      -0.9768026      2.6018651     -0.6804268
C       0.0478162      3.7581882      1.6613358
H      -1.3621852      2.1526253     -1.5963267
H       0.4466175      4.1992447      2.5772183
C      -0.4490904      3.8686098     -0.7030619
C       0.0733370      4.4535853      0.4777493
H      -0.4022607      4.4202442     -1.6440520
H       0.5029751      5.4558445      0.4380850
H       3.6344588     -2.4165451     -3.0008432
C       4.5167776      0.3509045     -1.5275327
C       4.7848040      0.5610851     -0.1194233
C       3.6413580     -1.4460792     -0.3838012
C       3.2404778     -1.4030407     -2.8360369
C       4.1720986     -0.4574831      0.6072752
N       3.7512262     -0.8433618     -1.6124064
O       3.1829417     -2.5564362     -0.1858929
O       4.8549365      0.9761776     -2.5185701
H       5.4111920      1.3711787      0.2433887
H       3.5610956     -0.7461416     -3.6538765
H       4.4346350     -0.7984374      1.6087588
H       2.1413553     -1.4421581     -2.8043843
          85

O       0.6893881     -1.5287725      0.7516771
C       1.4958038     -0.9663054      1.4636192
O       1.8382413     -1.4517722      2.6696205
C       1.2925354     -2.7223172      3.0141028
C       1.8749979     -3.1324140      4.3464568
C       2.2599406      0.2395769      1.1259751
N       1.8742063      0.9024161     -0.0034496
C       2.5193109      2.0072026     -0.2439206
C       2.4394677      2.7651117     -1.4931375
C       1.9339996      2.2094646     -2.6785256
C       1.8502419      2.9805974     -3.8342424
C       2.2858097      4.3087216     -3.8341968
C       2.8220037      4.8584802     -2.6679525
C       2.9032502      4.0881687     -1.5102302
H       0.1935834     -2.6430144      3.0593460
H       1.5398767     -3.4372875      2.2156461
H       1.4742662     -4.1091415      4.6488585
H       1.6243214     -2.3956794      5.1224453
H       2.9687262     -3.2092557      4.2791859
H       0.5894423      0.1448668     -0.9522377
H       2.6389656      0.8090033      1.9854816
H       3.0855020      2.4894992      0.5670012
H       1.5974941      1.1725942     -2.6803656
H       1.4490766      2.5403915     -4.7494077
H       2.2198449      4.9084694     -4.7438339
H       3.1776131      5.8906203     -2.6621387
H       3.3142848      4.5198282     -0.5938636
H      -3.0505019     -4.4898963      1.2037418
C      -2.8935571     -3.4689093      1.5374503
H      -1.1813949     -2.5574893      0.4164401
H      -5.1248978     -2.8861692      4.0179241
C      -1.9897395     -2.5313509      1.1389299
H      -4.4230596     -4.4941551      3.6591626
C      -4.7684481     -3.5498478      3.2242914
N      -3.6572370     -2.9025998      2.5371492
H      -6.4424197     -0.1160341      0.8921163
H      -7.2402566     -1.5210736     -1.0195426
C      -5.7353532     -0.4454591      0.1284313
C      -6.1904091     -1.2318442     -0.9560316
N      -2.2213990     -1.4065903      1.9078682
H      -5.5759317     -3.7402036      2.5078038
C      -3.2383635     -1.6597057      2.7389072
C      -4.4122732     -0.0731798      0.2211975
C      -5.3017305     -1.6078183     -1.9369322
H      -1.1308371     -0.1006073      3.9157705
H      -4.0895863      0.5616881      1.0486265
H      -5.6362995     -2.1970384     -2.7938339
C      -1.6057105     -0.1108387      1.7983353
C      -1.1003269      0.4671466      2.9843424
C      -3.4589923     -0.4767444     -0.7581138
C      -3.9332849     -1.2403382     -1.8641822
H      -3.6636426     -0.9522036      3.4472679
C      -2.0654774     -0.1409253     -0.6571380
C      -3.0081463     -1.6129297     -2.8815816
C      -1.5595134      0.5297320      0.5712190
C      -0.5505923      1.7240694      2.9400868
H      -3.3648024     -2.1954040     -3.7337980
H      -0.1415842      2.1769962      3.8448914
C      -1.6967212     -1.2454716     -2.7988857
C      -1.1926788     -0.5033010     -1.6830660
C      -1.0178593      1.8533259      0.5300234
C      -0.5051278      2.4485307      1.7210191
O       0.1020117     -0.2295465     -1.7496966
H      -0.9783555     -1.5185734     -3.5729036
C      -0.9782416      2.6019532     -0.6800580
C       0.0472539      3.7582465      1.6614552
H      -1.3636925      2.1525313     -1.5958233
H       0.4464850      4.1992149      2.5771966
C      -0.4499578      3.8684349     -0.7029280
C       0.0732567      4.4533167      0.4776769
H      -0.4029984      4.4199192     -1.6440007
H       0.5036119      5.4552634      0.4377040
H       3.6340025     -2.4195440     -3.0117203
C       4.5082348      0.3476761     -1.5227550
C       4.7654888      0.5645786     -0.1189422
C       3.6268021     -1.4531565     -0.3884687
C       3.2370468     -1.4074726     -2.8445749
C       4.1453632     -0.4531079      0.6127932
N       3.7412017     -0.8500660     -1.6151185
O       3.1705609     -2.5657129     -0.1948392
O       4.8531296      0.9695780     -2.5150299
H       5.3913577      1.3734690      0.2470755
H       3.5603606     -0.7461633     -3.6578664
H       4.4192658     -0.8034758      1.6081333
H       2.1378820     -1.4497009     -2.8160282
          85

O       0.6838297     -1.5411151      0.7482149
C       1.4830816     -0.9724508      1.4615050
O       1.8335797     -1.4524344      2.6680180
C       1.2911948     -2.7236280      3.0137921
C       1.8744669     -3.1328030      4.3458793
C       2.2339183      0.2346288      1.1195769
N       1.8653909      0.9010998     -0.0107160
C       2.5180925      2.0032193     -0.2452256
C       2.4395502      2.7642367     -1.4934978
C       1.9336909      2.2090805     -2.6788992
C       1.8501751      2.9802587     -3.8345695
C       2.2858419      4.3083400     -3.8349963
C       2.8217286      4.8582136     -2.6687032
C       2.9029215      4.0875908     -1.5108812
H       0.1922299     -2.6463055      3.0594399
H       1.5388259     -3.4385131      2.2153624
H       1.4734710     -4.1093249      4.6486961
H       1.6240451     -2.3958464      5.1217311
H       2.9681917     -3.2101754      4.2784443
H       0.5907044      0.1481623     -0.9550863
H       2.6192770      0.8012156      1.9769425
H       3.0798749      2.4836770      0.5694019
H       1.5965069      1.1723942     -2.6809118
H       1.4486284      2.5401309     -4.7496262
H       2.2198395      4.9079024     -4.7448273
H       3.1774460      5.8902871     -2.6627405
H       3.3144606      4.5193235     -0.5947260
H      -3.0506860     -4.4899625      1.2037456
C      -2.8937463     -3.4690213      1.5375228
H      -1.1830231     -2.5578349      0.4149997
H      -5.1249826     -2.8864022      4.0178324
C      -1.9902622     -2.5315095      1.1385842
H      -4.4231527     -4.4943209      3.6592127
C      -4.7684332     -3.5500185      3.2242860
N      -3.6572307     -2.9027461      2.5373279
H      -6.4425939     -0.1158760      0.8919158
H      -7.2403917     -1.5209804     -1.0198635
C      -5.7355276     -0.4454699      0.1283067
C      -6.1905393     -1.2317946     -0.9561518
N      -2.2216510     -1.4067650      1.9077027
H      -5.5758055     -3.7403735      2.5076959
C      -3.2385248     -1.6597889      2.7388795
C      -4.4124055     -0.0733149      0.2210818
C      -5.3018031     -1.6079020     -1.9369523
H      -1.1310980     -0.1009317      3.9156936
H      -4.0897278      0.5616559      1.0484585
H      -5.6363980     -2.1972954     -2.7937492
C      -1.6062487     -0.1110181      1.7982659
C      -1.1007768      0.4668198      2.9842704
C      -3.4591552     -0.4767853     -0.7582363
C      -3.9334799     -1.2404624     -1.8642416
H      -3.6637369     -0.9521598      3.4472368
C      -2.0656522     -0.1411575     -0.6571917
C      -3.0084772     -1.6130427     -2.8818249
C      -1.5599304      0.5295884      0.5711688
C      -0.5514600      1.7239065      2.9400385
H      -3.3653831     -2.1951966     -3.7342026
H      -0.1424342      2.1767877      3.8449104
C      -1.6971561     -1.2456120     -2.7991381
C      -1.1927512     -0.5035755     -1.6832323
C      -1.0182286      1.8532158      0.5300692
C      -0.5056707      2.4484383      1.7210324
O       0.1012339     -0.2304120     -1.7503636
H      -0.9787697     -1.5181721     -3.5732964
C      -0.9787697      2.6018542     -0.6799827
C       0.0469236      3.7580983      1.6614266
H      -1.3645535      2.1524649     -1.5955951
H       0.4462375      4.1990631      2.5771612
C      -0.4502649      3.8682191     -0.7029573
C       0.0730444      4.4530598      0.4775938
H      -0.4035741      4.4197928     -1.6439266
H       0.5035020      5.4549479      0.4375238
H       3.6276671     -2.4212587     -3.0169794
C       4.5031856      0.3433156     -1.5249205
C       4.7482443      0.5560732     -0.1176978
C       3.6144708     -1.4564772     -0.3937500
C       3.2325376     -1.4088969     -2.8479812
C       4.1098071     -0.4581542      0.6087968
N       3.7385252     -0.8547348     -1.6198517
O       3.1665178     -2.5711548     -0.1974412
O       4.8502616      0.9664729     -2.5158638
H       5.3757977      1.3610334      0.2541831
H       3.5559075     -0.7478119     -3.6613664
H       4.3875188     -0.8137037      1.6018159
H       2.1333577     -1.4501752     -2.8179473
          85

O       0.6784781     -1.5537817      0.7448605
C       1.4703251     -0.9792596      1.4601021
O       1.8289990     -1.4531294      2.6665458
C       1.2901039     -2.7251407      3.0132627
C       1.8738693     -3.1333631      4.3451222
C       2.2072469      0.2297452      1.1128221
N       1.8567343      0.8999743     -0.0181262
C       2.5167777      1.9994004     -0.2465147
C       2.4394463      2.7633779     -1.4938499
C       1.9334324      2.2085855     -2.6792350
C       1.8498728      2.9798268     -3.8348019
C       2.2857876      4.3078398     -3.8356835
C       2.8214549      4.8577769     -2.6693172
C       2.9023509      4.0869562     -1.5113215
H       0.1909411     -2.6498570      3.0588634
H       1.5384946     -3.4395445      2.2148101
H       1.4724904     -4.1095850      4.6482189
H       1.6235206     -2.3960750      5.1206660
H       2.9674955     -3.2112577      4.2776448
H       0.5921099      0.1527131     -0.9585322
H       2.5942941      0.7955015      1.9723689
H       3.0743412      2.4780655      0.5719683
H       1.5959922      1.1719916     -2.6816098
H       1.4480855      2.5396519     -4.7497182
H       2.2196637      4.9071900     -4.7455811
H       3.1772143      5.8898665     -2.6631017
H       3.3138058      4.5187677     -0.5952029
H      -3.0509499     -4.4900396      1.2035156
C      -2.8939063     -3.4691700      1.5374974
H      -1.1845126     -2.5583541      0.4139787
H      -5.1250479     -2.8864476      4.0179363
C      -1.9906985     -2.5316111      1.1384405
H      -4.4231727     -4.4944140      3.6591410
C      -4.7685318     -3.5500831      3.2242976
N      -3.6573560     -2.9028520      2.5372895
H      -6.4426926     -0.1161842      0.8919658
H      -7.2404290     -1.5211893     -1.0196929
C      -5.7355753     -0.4455883      0.1283153
C      -6.1905898     -1.2319501     -0.9561443
N      -2.2217970     -1.4068733      1.9076505
H      -5.5759593     -3.7404032      2.5077347
C      -3.2385857     -1.6599838      2.7389485
C      -4.4125133     -0.0732470      0.2211377
C      -5.3019245     -1.6078905     -1.9370437
H      -1.1316693     -0.1011767      3.9156849
H      -4.0899396      0.5616430      1.0485909
H      -5.6364766     -2.1970952     -2.7939660
C      -1.6065686     -0.1111596      1.7981175
C      -1.1012435      0.4665350      2.9842296
C      -3.4592684     -0.4768708     -0.7581704
C      -3.9336044     -1.2404197     -1.8642319
H      -3.6637417     -0.9524770      3.4473666
C      -2.0658128     -0.1413138     -0.6573605
C      -3.0088599     -1.6132117     -2.8818832
C      -1.5602444      0.5294869      0.5709786
C      -0.5519884      1.7235919      2.9400002
H      -3.3659444     -2.1955234     -3.7340316
H      -0.1431791      2.1764597      3.8449056
C      -1.6975516     -1.2460305     -2.7993692
C      -1.1931967     -0.5038758     -1.6836705
C      -1.0185440      1.8530834      0.5298891
C      -0.5060520      2.4480803      1.7209569
O       0.1008389     -0.2306972     -1.7517167
H      -0.9791480     -1.5188918     -3.5734280
C      -0.9791325      2.6017494     -0.6801635
C       0.0465839      3.7577248      1.6613855
H      -1.3650898      2.1523619     -1.5957526
H       0.4456393      4.1987784      2.5771567
C      -0.4503711      3.8679944     -0.7031159
C       0.0728137      4.4527075      0.4775645
H      -0.4036269      4.4196684     -1.6440901
H       0.5032645      5.4546144      0.4376661
H       3.6221082     -2.4231311     -3.0226548
C       4.4984616      0.3390645     -1.5271545
C       4.7314340      0.5480626     -0.1169648
C       3.6027665     -1.4600026     -0.3991520
C       3.2280591     -1.4106922     -2.8508220
C       4.0742908     -0.4630746      0.6057420
N       3.7358811     -0.8594568     -1.6242707
O       3.1628438     -2.5766951     -0.1999786
O       4.8475178      0.9634193     -2.5167982
H       5.3595942      1.3505141      0.2598547
H       3.5500245     -0.7490902     -3.6643496
H       4.3558585     -0.8244114      1.5954186
H       2.1287514     -1.4511513     -2.8200966
          85

O       0.6713054     -1.5685759      0.7418741
C       1.4581829     -0.9856456      1.4552350
O       1.8207342     -1.4542149      2.6627772
C       1.2882338     -2.7284034      3.0128140
C       1.8736722     -3.1337743      4.3447058
C       2.1934222      0.2262410      1.1062988
N       1.8422828      0.8991417     -0.0252311
C       2.5110417      1.9947151     -0.2493995
C       2.4392871      2.7620746     -1.4950058
C       1.9332755      2.2079663     -2.6804037
C       1.8494427      2.9793616     -3.8356342
C       2.2856559      4.3072118     -3.8359702
C       2.8211664      4.8567348     -2.6693250
C       2.9020107      4.0856713     -1.5112673
H       0.1888441     -2.6574639      3.0590405
H       1.5389299     -3.4426894      2.2150238
H       1.4730711     -4.1100503      4.6487076
H       1.6228799     -2.3961297      5.1197503
H       2.9673113     -3.2111069      4.2769714
H       0.5945894      0.1608850     -0.9642144
H       2.5700000      0.7948826      1.9672622
H       3.0653939      2.4700343      0.5728927
H       1.5957651      1.1714176     -2.6832057
H       1.4474143      2.5394588     -4.7505472
H       2.2196693      4.9069047     -4.7456519
H       3.1767109      5.8888849     -2.6628048
H       3.3127341      4.5175273     -0.5948428
H      -3.0520625     -4.4902242      1.2033588
C      -2.8947216     -3.4694563      1.5374908
H      -1.1873658     -2.5591917      0.4118644
H      -5.1252729     -2.8865948      4.0182116
C      -1.9919410     -2.5319715      1.1378284
H      -4.4235280     -4.4945765      3.6592113
C      -4.7688103     -3.5501592      3.2244919
N      -3.6576655     -2.9030222      2.5375253
H      -6.4427175     -0.1165157      0.8922004
H      -7.2405920     -1.5214847     -1.0194352
C      -5.7356534     -0.4458036      0.1284424
C      -6.1907782     -1.2321324     -0.9559699
N      -2.2221118     -1.4072054      1.9073922
H      -5.5762665     -3.7403461      2.5079218
C      -3.2386314     -1.6602576      2.7391237
C      -4.4126032     -0.0732796      0.2211625
C      -5.3022033     -1.6078237     -1.9370505
H      -1.1323692     -0.1014464      3.9155407
H      -4.0900807      0.5616596      1.0486048
H      -5.6367643     -2.1969049     -2.7940588
C      -1.6068733     -0.1114325      1.7978038
C      -1.1017501      0.4662727      2.9840930
C      -3.4593896     -0.4769427     -0.7582064
C      -3.9339658     -1.2404316     -1.8642128
H      -3.6634437     -0.9527856      3.4477804
C      -2.0658980     -0.1414339     -0.6578090
C      -3.0094694     -1.6136918     -2.8819176
C      -1.5604715      0.5292563      0.5705865
C      -0.5524653      1.7233333      2.9399425
H      -3.3668749     -2.1961680     -3.7338252
H      -0.1437163      2.1762457      3.8448538
C      -1.6981983     -1.2468043     -2.7996520
C      -1.1933415     -0.5038439     -1.6845346
C      -1.0192152      1.8530091      0.5297447
C      -0.5065940      2.4477753      1.7208645
O       0.1000987     -0.2308076     -1.7539335
H      -0.9798767     -1.5199097     -3.5737034
C      -0.9795683      2.6016131     -0.6803764
C       0.0462457      3.7573157      1.6613364
H      -1.3655111      2.1522096     -1.5959669
H       0.4451807      4.1983873      2.5771510
C      -0.4504630      3.8677065     -0.7032915
C       0.0726626      4.4522871      0.4775164
H      -0.4034948      4.4194303     -1.6442275
H       0.5031531      5.4541835      0.4377484
H       3.6165289     -2.4265893     -3.0324647
C       4.4908640      0.3341563     -1.5264103
C       4.7109441      0.5446675     -0.1153335
C       3.5887296     -1.4654794     -0.4038205
C       3.2228638     -1.4145701     -2.8573738
C       4.0437080     -0.4644451      0.6055830
N       3.7300012     -0.8664798     -1.6287649
O       3.1557931     -2.5851617     -0.2060277
O       4.8449576      0.9582335     -2.5149099
H       5.3394664      1.3443167      0.2666745
H       3.5449964     -0.7505705     -3.6689120
H       4.3275822     -0.8302763      1.5935514
H       2.1234957     -1.4546273     -2.8266824
          85

O       0.6646483     -1.5808321      0.7384361
C       1.4475070     -0.9926259      1.4507435
O       1.8120588     -1.4555140      2.6593445
C       1.2859079     -2.7318967      3.0121590
C       1.8736148     -3.1337142      4.3440945
C       2.1838969      0.2197521      1.0982576
N       1.8286516      0.8976857     -0.0315239
C       2.5044453      1.9899437     -0.2519927
C       2.4379586      2.7604515     -1.4964072
C       1.9328606      2.2070909     -2.6822352
C       1.8492067      2.9790671     -3.8369798
C       2.2856020      4.3067736     -3.8361150
C       2.8210579      4.8555101     -2.6690288
C       2.9014523      4.0837860     -1.5111904
H       0.1863117     -2.6655504      3.0589834
H       1.5392225     -3.4458008      2.2148972
H       1.4748067     -4.1102866      4.6495036
H       1.6219055     -2.3956308      5.1184044
H       2.9673170     -3.2094287      4.2757838
H       0.5967893      0.1673729     -0.9689507
H       2.5485308      0.7918137      1.9626850
H       3.0560570      2.4627757      0.5733757
H       1.5951818      1.1706050     -2.6857321
H       1.4471995      2.5398294     -4.7521924
H       2.2197395      4.9071785     -4.7453376
H       3.1766764      5.8876156     -2.6619221
H       3.3116214      4.5151586     -0.5942920
H      -3.0538206     -4.4904067      1.2031641
C      -2.8959709     -3.4697684      1.5374387
H      -1.1910250     -2.5601464      0.4090828
H      -5.1256274     -2.8867613      4.0186972
C      -1.9936681     -2.5323983      1.1369006
H      -4.4240366     -4.4947749      3.6594680
C      -4.7692023     -3.5502459      3.2248977
N      -3.6580454     -2.9032205      2.5379846
H      -6.4426778     -0.1167603      0.8924949
H      -7.2408942     -1.5215809     -1.0190449
C      -5.7357383     -0.4459985      0.1285959
C      -6.1910680     -1.2322480     -0.9557590
N      -2.2225840     -1.4076229      1.9069626
H      -5.5766485     -3.7402459      2.5082637
C      -3.2386421     -1.6605682      2.7393820
C      -4.4126699     -0.0733919      0.2211188
C      -5.3025995     -1.6078233     -1.9369835
H      -1.1328954     -0.1018435      3.9152438
H      -4.0901494      0.5615859      1.0485365
H      -5.6372206     -2.1968506     -2.7940095
C      -1.6072924     -0.1117978      1.7973819
C      -1.1022528      0.4659028      2.9838094
C      -3.4595341     -0.4770293     -0.7583717
C      -3.9344062     -1.2405477     -1.8642278
H      -3.6628722     -0.9530776      3.4483675
C      -2.0660170     -0.1415297     -0.6583754
C      -3.0101606     -1.6142956     -2.8819807
C      -1.5608283      0.5290347      0.5701546
C      -0.5530712      1.7230410      2.9398267
H      -3.3678512     -2.1969918     -3.7336244
H      -0.1443647      2.1758843      3.8447908
C      -1.6989401     -1.2475593     -2.8000376
C      -1.1935358     -0.5037847     -1.6855358
C      -1.0200299      1.8529702      0.5296662
C      -0.5072826      2.4475700      1.7207974
O       0.0993227     -0.2307669     -1.7561257
H      -0.9807403     -1.5208817     -3.5741297
C      -0.9801973      2.6015264     -0.6804913
C       0.0458946      3.7569787      1.6612879
H      -1.3662142      2.1521240     -1.5960522
H       0.4448411      4.1980198      2.5771099
C      -0.4506352      3.8674065     -0.7034298
C       0.0725797      4.4518685      0.4774356
H      -0.4034872      4.4191468     -1.6443496
H       0.5032700      5.4536822      0.4376983
H       3.6126389     -2.4297457     -3.0408716
C       4.4828708      0.3297092     -1.5250795
C       4.6898240      0.5420546     -0.1143154
C       3.5746451     -1.4711866     -0.4087292
C       3.2185158     -1.4183306     -2.8632891
C       4.0104309     -0.4657823      0.6054994
N       3.7231347     -0.8729157     -1.6324257
O       3.1478379     -2.5933547     -0.2120949
O       4.8424492      0.9525416     -2.5129937
H       5.3186615      1.3391213      0.2724442
H       3.5417111     -0.7520180     -3.6725333
H       4.3019245     -0.8377230      1.5894777
H       2.1190622     -1.4587268     -2.8344389
          85

O       0.6584640     -1.5915279      0.7350987
C       1.4379795     -0.9999012      1.4467425
O       1.8038534     -1.4569532      2.6563295
C       1.2834200     -2.7353091      3.0116186
C       1.8734977     -3.1335728      4.3434554
C       2.1781521      0.2116444      1.0895666
N       1.8164280      0.8959414     -0.0378957
C       2.4983536      1.9851331     -0.2543936
C       2.4362679      2.7587944     -1.4977898
C       1.9322407      2.2061656     -2.6841108
C       1.8490819      2.9788381     -3.8383838
C       2.2856647      4.3064042     -3.8362263
C       2.8210054      4.8542815     -2.6686488
C       2.9006704      4.0817649     -1.5111045
H       0.1836804     -2.6730523      3.0590021
H       1.5391492     -3.4486921      2.2146990
H       1.4767851     -4.1105228      4.6503472
H       1.6207910     -2.3950643      5.1170091
H       2.9672642     -3.2073435      4.2743631
H       0.5989772      0.1729837     -0.9730623
H       2.5269278      0.7881091      1.9583306
H       3.0473677      2.4559356      0.5737139
H       1.5944128      1.1697346     -2.6884020
H       1.4473036      2.5403342     -4.7540188
H       2.2200561      4.9075365     -4.7449921
H       3.1769216      5.8862601     -2.6608470
H       3.3104748      4.5124717     -0.5937325
H      -3.0557373     -4.4905527      1.2029079
C      -2.8973298     -3.4700600      1.5373520
H      -1.1949155     -2.5611133      0.4060985
H      -5.1259633     -2.8868977      4.0192753
C      -1.9955076     -2.5328079      1.1359019
H      -4.4245487     -4.4949592      3.6598255
C      -4.7696031     -3.5503228      3.2254009
N      -3.6584401     -2.9034215      2.5384930
H      -6.4426382     -0.1169275      0.8927642
H      -7.2412163     -1.5216350     -1.0187505
C      -5.7358340     -0.4461546      0.1287289
C      -6.1913779     -1.2323255     -0.9555581
N      -2.2231170     -1.4080380      1.9064935
H      -5.5770532     -3.7401330      2.5087188
C      -3.2386433     -1.6608913      2.7396803
C      -4.4127424     -0.0735102      0.2210511
C      -5.3030187     -1.6078733     -1.9369033
H      -1.1333682     -0.1023182      3.9148878
H      -4.0902046      0.5615076      1.0484338
H      -5.6377294     -2.1968733     -2.7939169
C      -1.6078027     -0.1121622      1.7969245
C      -1.1027393      0.4654656      2.9834707
C      -3.4597202     -0.4771357     -0.7585727
C      -3.9348619     -1.2407171     -1.8642646
H      -3.6622218     -0.9533849      3.4490388
C      -2.0662055     -0.1416183     -0.6589535
C      -3.0108450     -1.6148849     -2.8820815
C      -1.5612965      0.5288456      0.5697148
C      -0.5537109      1.7227073      2.9396968
H      -3.3687953     -2.1977987     -3.7334738
H      -0.1450629      2.1754417      3.8447388
C      -1.6996875     -1.2482244     -2.8004724
C      -1.1937608     -0.5037479     -1.6864981
C      -1.0208694      1.8529348      0.5296002
C      -0.5079942      2.4473754      1.7207388
O       0.0985276     -0.2307578     -1.7580747
H      -0.9815935     -1.5217134     -3.5746068
C      -0.9809369      2.6014772     -0.6805684
C       0.0455310      3.7566631      1.6612555
H      -1.3671038      2.1520960     -1.5960761
H       0.4445126      4.1976691      2.5770756
C      -0.4508828      3.8671193     -0.7035403
C       0.0725113      4.4514439      0.4773587
H      -0.4036071      4.4188896     -1.6444384
H       0.5034526      5.4531522      0.4376222
H       3.6094801     -2.4326532     -3.0483020
C       4.4756686      0.3259418     -1.5235148
C       4.6691095      0.5396427     -0.1137644
C       3.5604485     -1.4764339     -0.4137442
C       3.2148617     -1.4217868     -2.8685694
C       3.9734404     -0.4660847      0.6058738
N       3.7165593     -0.8789076     -1.6356557
O       3.1402071     -2.6011705     -0.2177059
O       4.8400412      0.9470159     -2.5116967
H       5.2980264      1.3341005      0.2781811
H       3.5393668     -0.7533767     -3.6755796
H       4.2765607     -0.8462527      1.5838541
H       2.1153032     -1.4626032     -2.8419359
          85

O       0.6591360     -1.5822863      0.7358949
C       1.4487912     -1.0013906      1.4440513
O       1.7998119     -1.4584432      2.6550321
C       1.2808746     -2.7384143      3.0116664
C       1.8740966     -3.1324448      4.3435282
C       2.2262741      0.2012917      1.0837037
N       1.8145941      0.8936644     -0.0355561
C       2.4912394      1.9833996     -0.2556145
C       2.4322407      2.7574729     -1.4995279
C       1.9312141      2.2051592     -2.6868241
C       1.8493814      2.9792254     -3.8404412
C       2.2860715      4.3066058     -3.8348503
C       2.8215030      4.8527905     -2.6664446
C       2.8995258      4.0790447     -1.5097959
H       0.1811466     -2.6778890      3.0595223
H       1.5391983     -3.4510675      2.2148182
H       1.4821644     -4.1106999      4.6524407
H       1.6192374     -2.3937622      5.1161896
H       2.9680834     -3.2012761      4.2728380
H       0.6001778      0.1740035     -0.9736216
H       2.5353554      0.7906163      1.9613368
H       3.0455519      2.4542214      0.5690047
H       1.5942149      1.1684908     -2.6921835
H       1.4490327      2.5422040     -4.7573410
H       2.2213878      4.9094035     -4.7425952
H       3.1782927      5.8844072     -2.6576553
H       3.3087205      4.5079540     -0.5913216
H      -3.0590526     -4.4905515      1.2024287
C      -2.8996281     -3.4702544      1.5370203
H      -1.1990642     -2.5619546      0.4028390
H      -5.1262900     -2.8867669      4.0205339
C      -1.9980050     -2.5332257      1.1344727
H      -4.4253580     -4.4949932      3.6606875
C      -4.7702597     -3.5501878      3.2265157
N      -3.6590827     -2.9035333      2.5393076
H      -6.4423425     -0.1169951      0.8933514
H      -7.2416622     -1.5215404     -1.0180885
C      -5.7358315     -0.4462696      0.1290631
C      -6.1917811     -1.2323404     -0.9551093
N      -2.2237991     -1.4084981      1.9058141
H      -5.5778566     -3.7396582      2.5099127
C      -3.2384170     -1.6612345      2.7402608
C      -4.4126835     -0.0736569      0.2209516
C      -5.3036172     -1.6079768     -1.9366362
H      -1.1333099     -0.1028220      3.9141990
H      -4.0899963      0.5614324      1.0482229
H      -5.6385495     -2.1969822     -2.7935597
C      -1.6081121     -0.1125177      1.7962431
C      -1.1026737      0.4650634      2.9828335
C      -3.4598904     -0.4772199     -0.7589403
C      -3.9353823     -1.2410141     -1.8643139
H      -3.6607826     -0.9537390      3.4503716
C      -2.0663579     -0.1413748     -0.6597941
C      -3.0113301     -1.6156270     -2.8819904
C      -1.5616893      0.5288114      0.5691457
C      -0.5534914      1.7223739      2.9394536
H      -3.3692473     -2.1991070     -3.7330180
H      -0.1447664      2.1748857      3.8445796
C      -1.7001636     -1.2487009     -2.8008106
C      -1.1937399     -0.5031304     -1.6874989
C      -1.0217237      1.8530606      0.5295846
C      -0.5083780      2.4473828      1.7206668
O       0.0983153     -0.2295391     -1.7591791
H      -0.9822881     -1.5226716     -3.5749902
C      -0.9816263      2.6016387     -0.6805699
C       0.0454963      3.7565609      1.6612993
H      -1.3678354      2.1523821     -1.5960994
H       0.4447472      4.1973950      2.5770765
C      -0.4510595      3.8670291     -0.7035167
C       0.0728256      4.4512061      0.4773579
H      -0.4034919      4.4187437     -1.6444334
H       0.5041764      5.4527398      0.4375391
H       3.6172692     -2.4337657     -3.0490157
C       4.4741674      0.3290957     -1.5160990
C       4.6638414      0.5506510     -0.1149769
C       3.5570094     -1.4780055     -0.4132579
C       3.2186196     -1.4242065     -2.8704099
C       3.9619810     -0.4540431      0.6137755
N       3.7105258     -0.8797386     -1.6320847
O       3.1344336     -2.6038036     -0.2213661
O       4.8415622      0.9432162     -2.5094980
H       5.2915049      1.3452662      0.2778286
H       3.5469693     -0.7527264     -3.6734874
H       4.2891445     -0.8457979      1.5820036
H       2.1189522     -1.4682184     -2.8507545
          85

O       0.6608234     -1.5705406      0.7368494
C       1.4608773     -1.0047045      1.4439809
O       1.8004875     -1.4603371      2.6560369
C       1.2785458     -2.7399122      3.0123490
C       1.8737933     -3.1322461      4.3435684
C       2.2671757      0.1880009      1.0771539
N       1.8185179      0.8898287     -0.0353626
C       2.4880029      1.9814975     -0.2562558
C       2.4281448      2.7565143     -1.5004636
C       1.9297055      2.2041970     -2.6885256
C       1.8497718      2.9794457     -3.8416986
C       2.2867333      4.3066743     -3.8337737
C       2.8217598      4.8518058     -2.6646416
C       2.8975827      4.0770173     -1.5086738
H       0.1790961     -2.6776116      3.0603675
H       1.5368211     -3.4517073      2.2146996
H       1.4851706     -4.1113782      4.6535860
H       1.6177536     -2.3936790      5.1158948
H       2.9678199     -3.1976588      4.2711666
H       0.6010348      0.1714519     -0.9717239
H       2.5434362      0.7844848      1.9600497
H       3.0474809      2.4530033      0.5648751
H       1.5934997      1.1672918     -2.6947253
H       1.4510151      2.5436009     -4.7598076
H       2.2232524      4.9103752     -4.7410123
H       3.1798709      5.8829139     -2.6550004
H       3.3068521      4.5041826     -0.5894369
H      -3.0614772     -4.4903371      1.2017261
C      -2.9013272     -3.4702230      1.5365541
H      -1.2018332     -2.5623361      0.4006043
H      -5.1261913     -2.8864408      4.0216762
C      -1.9996438     -2.5333699      1.1335065
H      -4.4258817     -4.4948907      3.6614792
C      -4.7707015     -3.5499680      3.2275078
N      -3.6595878     -2.9035786      2.5397682
H      -6.4421595     -0.1170753      0.8937775
H      -7.2419243     -1.5215039     -1.0175002
C      -5.7358241     -0.4463601      0.1293340
C      -6.1920082     -1.2323919     -0.9547680
N      -2.2243447     -1.4087616      1.9053633
H      -5.5786205     -3.7391301      2.5111921
C      -3.2382438     -1.6614969      2.7407133
C      -4.4126747     -0.0737233      0.2208869
C      -5.3040248     -1.6081373     -1.9364366
H      -1.1330715     -0.1034862      3.9135298
H      -4.0898784      0.5614502      1.0480458
H      -5.6391580     -2.1971821     -2.7932540
C      -1.6085619     -0.1127607      1.7956946
C      -1.1024914      0.4644747      2.9821997
C      -3.4601010     -0.4772653     -0.7592306
C      -3.9357144     -1.2412621     -1.8643712
H      -3.6596960     -0.9540558      3.4514246
C      -2.0666281     -0.1411728     -0.6603679
C      -3.0115286     -1.6160920     -2.8818883
C      -1.5622542      0.5288372      0.5687441
C      -0.5532197      1.7217793      2.9391127
H      -3.3693204     -2.2000529     -3.7326431
H      -0.1443873      2.1740233      3.8443215
C      -1.7003492     -1.2488305     -2.8010251
C      -1.1937350     -0.5026837     -1.6880334
C      -1.0221746      1.8530203      0.5294539
C      -0.5084462      2.4471244      1.7204955
O       0.0982145     -0.2283073     -1.7593531
H      -0.9825945     -1.5231501     -3.5752006
C      -0.9823193      2.6017980     -0.6805811
C       0.0454738      3.7563122      1.6613352
H      -1.3688662      2.1527628     -1.5960654
H       0.4448647      4.1970120      2.5771102
C      -0.4513133      3.8669716     -0.7034545
C       0.0730005      4.4509210      0.4774011
H      -0.4037248      4.4187860     -1.6443149
H       0.5046238      5.4523403      0.4375671
H       3.6259211     -2.4337007     -3.0468474
C       4.4767654      0.3330778     -1.5113796
C       4.6599175      0.5572266     -0.1172554
C       3.5513118     -1.4770102     -0.4144964
C       3.2239197     -1.4251591     -2.8694350
C       3.9314111     -0.4432499      0.6195109
N       3.7081528     -0.8791836     -1.6290925
O       3.1313346     -2.6042679     -0.2216559
O       4.8441009      0.9409049     -2.5110382
H       5.2814451      1.3544462      0.2799644
H       3.5543068     -0.7520564     -3.6702564
H       4.2854283     -0.8475765      1.5725588
H       2.1242747     -1.4724385     -2.8547927
          85

O       0.6626395     -1.5592521      0.7388374
C       1.4725683     -1.0081004      1.4441653
O       1.8029150     -1.4624403      2.6567931
C       1.2762893     -2.7408046      3.0135445
C       1.8730360     -3.1328238      4.3439852
C       2.3045524      0.1753763      1.0699850
N       1.8223111      0.8861911     -0.0366584
C       2.4857736      1.9791099     -0.2570974
C       2.4246115      2.7558732     -1.5011835
C       1.9282179      2.2033919     -2.6896252
C       1.8500465      2.9794453     -3.8425367
C       2.2874441      4.3064716     -3.8327887
C       2.8217353      4.8510493     -2.6630464
C       2.8955550      4.0754947     -1.5075087
H       0.1772157     -2.6748745      3.0621252
H       1.5329252     -3.4524030      2.2151641
H       1.4861568     -4.1124695      4.6543965
H       1.6168642     -2.3945119      5.1164676
H       2.9670186     -3.1965564      4.2699583
H       0.6020413      0.1703908     -0.9704828
H       2.5447106      0.7816705      1.9591128
H       3.0506623      2.4501684      0.5607508
H       1.5928398      1.1662385     -2.6964330
H       1.4527864      2.5444849     -4.7616674
H       2.2253655      4.9107016     -4.7397862
H       3.1809611      5.8817183     -2.6528180
H       3.3048802      4.5012318     -0.5876498
H      -3.0633080     -4.4901038      1.2010177
C      -2.9026005     -3.4701630      1.5361294
H      -1.2041551     -2.5626056      0.3986442
H      -5.1259098     -2.8861161      4.0226476
C      -2.0008606     -2.5334268      1.1327861
H      -4.4261944     -4.4947710      3.6621068
C      -4.7709850     -3.5497563      3.2283235
N      -3.6599908     -2.9036009      2.5400332
H      -6.4420961     -0.1171625      0.8940610
H      -7.2420823     -1.5215839     -1.0171161
C      -5.7358622     -0.4464514      0.1295277
C      -6.1921543     -1.2324896     -0.9545200
N      -2.2247968     -1.4089309      1.9050313
H      -5.5792589     -3.7386571      2.5123460
C      -3.2381613     -1.6616990      2.7410350
C      -4.4127305     -0.0737566      0.2208359
C      -5.3042937     -1.6083180     -1.9362936
H      -1.1328503     -0.1041183      3.9129858
H      -4.0898731      0.5615239      1.0478831
H      -5.6395800     -2.1974115     -2.7930162
C      -1.6090614     -0.1129195      1.7952729
C      -1.1022503      0.4638782      2.9816704
C      -3.4603440     -0.4773000     -0.7594467
C      -3.9359423     -1.2414655     -1.8644265
H      -3.6589199     -0.9543374      3.4522450
C      -2.0669549     -0.1409895     -0.6607688
C      -3.0115686     -1.6163678     -2.8817997
C      -1.5628578      0.5288682      0.5684414
C      -0.5527558      1.7210980      2.9387704
H      -3.3692020     -2.2006629     -3.7323952
H      -0.1438176      2.1731361      3.8440308
C      -1.7003922     -1.2488010     -2.8011252
C      -1.1937259     -0.5022718     -1.6882825
C      -1.0224832      1.8528906      0.5293013
C      -0.5083198      2.4467238      1.7202970
O       0.0981435     -0.2273530     -1.7591171
H      -0.9826823     -1.5233090     -3.5752802
C      -0.9829811      2.6018976     -0.6806127
C       0.0455347      3.7559672      1.6613763
H      -1.3700023      2.1531384     -1.5960247
H       0.4450290      4.1965509      2.5771522
C      -0.4516481      3.8669023     -0.7033734
C       0.0731023      4.4505982      0.4774785
H      -0.4042225      4.4189158     -1.6441265
H       0.5048301      5.4519764      0.4376855
H       3.6342806     -2.4337434     -3.0463622
C       4.4800380      0.3367780     -1.5070759
C       4.6537715      0.5628011     -0.1188522
C       3.5435514     -1.4753585     -0.4163971
C       3.2295322     -1.4261434     -2.8692432
C       3.8964333     -0.4323919      0.6244744
N       3.7072529     -0.8793486     -1.6271801
O       3.1285272     -2.6048153     -0.2218194
O       4.8475661      0.9384531     -2.5128764
H       5.2692494      1.3620136      0.2837748
H       3.5614044     -0.7512797     -3.6679973
H       4.2799951     -0.8534535      1.5610639
H       2.1298643     -1.4763642     -2.8586910
          85

O       0.6647117     -1.5434151      0.7426890
C       1.4871806     -1.0104019      1.4458094
O       1.8100657     -1.4665435      2.6578676
C       1.2730145     -2.7409698      3.0159028
C       1.8710924     -3.1347728      4.3451016
C       2.3363103      0.1658048      1.0654856
N       1.8271103      0.8803641     -0.0383249
C       2.4823497      1.9760579     -0.2586921
C       2.4192749      2.7547105     -1.5020050
C       1.9256061      2.2023315     -2.6912552
C       1.8504204      2.9793883     -3.8437316
C       2.2886397      4.3061129     -3.8315109
C       2.8213232      4.8499305     -2.6606578
C       2.8919539      4.0734830     -1.5056445
H       0.1746740     -2.6663321      3.0662669
H       1.5236556     -3.4541819      2.2170427
H       1.4845148     -4.1144445      4.6556408
H       1.6167735     -2.3966967      5.1183786
H       2.9648661     -3.1986789      4.2685542
H       0.6030331      0.1677278     -0.9683386
H       2.5527851      0.7789323      1.9555253
H       3.0513873      2.4475621      0.5561039
H       1.5909776      1.1649465     -2.6990387
H       1.4554454      2.5456028     -4.7643702
H       2.2290385      4.9109504     -4.7382785
H       3.1819880      5.8800553     -2.6495088
H       3.3007737      4.4973462     -0.5847070
H      -3.0655815     -4.4897348      1.1999788
C      -2.9041996     -3.4700088      1.5354444
H      -1.2063420     -2.5624865      0.3968086
H      -5.1252637     -2.8856619      4.0240645
C      -2.0023024     -2.5333871      1.1318706
H      -4.4264906     -4.4946086      3.6629338
C      -4.7712713     -3.5494560      3.2294522
N      -3.6605504     -2.9036312      2.5402580
H      -6.4421658     -0.1173702      0.8943448
H      -7.2422497     -1.5219165     -1.0167051
C      -5.7360080     -0.4466308      0.1297305
C      -6.1923306     -1.2327540     -0.9542515
N      -2.2254709     -1.4091055      1.9045954
H      -5.5801909     -3.7379837      2.5141116
C      -3.2381331     -1.6619482      2.7413943
C      -4.4129341     -0.0737837      0.2207404
C      -5.3045868     -1.6086615     -1.9361359
H      -1.1323251     -0.1052085      3.9122049
H      -4.0899963      0.5616428      1.0476352
H      -5.6400357     -2.1978693     -2.7927170
C      -1.6097306     -0.1131495      1.7947627
C      -1.1018056      0.4629338      2.9809672
C      -3.4607415     -0.4773110     -0.7597311
C      -3.9362020     -1.2417382     -1.8645268
H      -3.6580413     -0.9547287      3.4532545
C      -2.0675028     -0.1406889     -0.6611808
C      -3.0115015     -1.6166121     -2.8816776
C      -1.5637167      0.5288976      0.5681347
C      -0.5517439      1.7198895      2.9382210
H      -3.3688341     -2.2013169     -3.7321234
H      -0.1423189      2.1715402      3.8434518
C      -1.7003593     -1.2485753     -2.8011390
C      -1.1937659     -0.5017110     -1.6883923
C      -1.0228378      1.8526315      0.5290854
C      -0.5078732      2.4459450      1.7199754
O       0.0980188     -0.2262303     -1.7585528
H      -0.9826209     -1.5232500     -3.5752156
C      -0.9839981      2.6020221     -0.6806091
C       0.0458540      3.7552497      1.6613636
H      -1.3717868      2.1536888     -1.5958983
H       0.4456450      4.1955848      2.5771240
C      -0.4523545      3.8668747     -0.7031881
C       0.0731214      4.4501135      0.4776097
H      -0.4053336      4.4192460     -1.6437517
H       0.5049221      5.4514659      0.4379140
H       3.6495819     -2.4340552     -3.0467228
C       4.4836852      0.3401965     -1.5036304
C       4.6448066      0.5692975     -0.1196781
C       3.5325887     -1.4726081     -0.4194204
C       3.2398360     -1.4281197     -2.8710056
C       3.8659214     -0.4239186      0.6263983
N       3.7070373     -0.8791960     -1.6265135
O       3.1230083     -2.6044644     -0.2229019
O       4.8549673      0.9345419     -2.5144019
H       5.2482039      1.3745089      0.2894211
H       3.5735451     -0.7511086     -3.6671758
H       4.2683393     -0.8575125      1.5489449
H       2.1402659     -1.4832740     -2.8667593
          85

O       0.6636086     -1.5250825      0.7526702
C       1.4974894     -1.0082625      1.4527946
O       1.8261026     -1.4738931      2.6585391
C       1.2691164     -2.7391454      3.0201571
C       1.8664930     -3.1400989      4.3474934
C       2.3520929      0.1638503      1.0667639
N       1.8281293      0.8750602     -0.0378277
C       2.4771492      1.9725233     -0.2602143
C       2.4118495      2.7516524     -1.5033168
C       1.9209705      2.2008507     -2.6941208
C       1.8509086      2.9794427     -3.8460171
C       2.2908229      4.3055778     -3.8303238
C       2.8194557      4.8479919     -2.6570040
C       2.8850822      4.0699814     -1.5030286
H       0.1724818     -2.6456462      3.0746530
H       1.5051739     -3.4572403      2.2212035
H       1.4724794     -4.1168733      4.6577068
H       1.6205816     -2.4008343      5.1223245
H       2.9594461     -3.2132450      4.2677680
H       0.6044033      0.1637154     -0.9657441
H       2.5516819      0.7878229      1.9585498
H       3.0464737      2.4471268      0.5526193
H       1.5849379      1.1640328     -2.7023940
H       1.4589551      2.5475653     -4.7688024
H       2.2356509      4.9112916     -4.7367695
H       3.1812938      5.8776429     -2.6434932
H       3.2916334      4.4915876     -0.5800924
H      -3.0684017     -4.4891223      1.1983957
C      -2.9063126     -3.4696549      1.5343122
H      -1.2085637     -2.5620359      0.3951526
H      -5.1237605     -2.8851815      4.0264139
C      -2.0041532     -2.5331539      1.1307145
H      -4.4265401     -4.4944735      3.6638960
C      -4.7714738     -3.5490601      3.2311079
N      -3.6614752     -2.9036137      2.5402914
H      -6.4426279     -0.1179647      0.8944759
H      -7.2424508     -1.5230700     -1.0162706
C      -5.7364634     -0.4470958      0.1298160
C      -6.1926121     -1.2335651     -0.9540220
N      -2.2266198     -1.4092070      1.9040022
H      -5.5817127     -3.7369866      2.5171060
C      -3.2383435     -1.6622280      2.7417130
C      -4.4135496     -0.0737994      0.2204774
C      -5.3049634     -1.6094490     -1.9360018
H      -1.1311300     -0.1075164      3.9109632
H      -4.0905864      0.5618437      1.0471781
H      -5.6404552     -2.1989511     -2.7923589
C      -1.6108979     -0.1133939      1.7942914
C      -1.1009982      0.4613580      2.9801738
C      -3.4614865     -0.4772474     -0.7601482
C      -3.9366307     -1.2420780     -1.8647298
H      -3.6571619     -0.9552992      3.4544869
C      -2.0684177     -0.1402397     -0.6614813
C      -3.0115934     -1.6167952     -2.8816053
C      -1.5650677      0.5289818      0.5679768
C      -0.5495707      1.7176979      2.9373597
H      -3.3683252     -2.2020173     -3.7319332
H      -0.1386486      2.1685590      3.8423112
C      -1.7005996     -1.2481324     -2.8008145
C      -1.1942126     -0.5011700     -1.6882203
C      -1.0234334      1.8522454      0.5288875
C      -0.5068254      2.4445203      1.7195161
O       0.0979048     -0.2255364     -1.7580081
H      -0.9826529     -1.5234608     -3.5742991
C      -0.9858904      2.6023145     -0.6804160
C       0.0469780      3.7537689      1.6611870
H      -1.3750683      2.1547048     -1.5954692
H       0.4478350      4.1934880      2.5767767
C      -0.4541281      3.8670994     -0.7027176
C       0.0728734      4.4494220      0.4778714
H      -0.4082747      4.4202140     -1.6428983
H       0.5046586      5.4507902      0.4383786
H       3.6803912     -2.4352574     -3.0480953
C       4.4892767      0.3417972     -1.5032882
C       4.6392351      0.5741796     -0.1219057
C       3.5236542     -1.4688502     -0.4246650
C       3.2601702     -1.4326311     -2.8776725
C       3.8527777     -0.4198233      0.6250050
N       3.7087710     -0.8778501     -1.6294693
O       3.1104903     -2.5996533     -0.2275608
O       4.8694773      0.9294055     -2.5155451
H       5.2370980      1.3815878      0.2902441
H       3.5961620     -0.7535917     -3.6711057
H       4.2770042     -0.8680806      1.5360837
H       2.1613191     -1.4992211     -2.8848163
          85

O       0.6557856     -1.5129389      0.7673983
C       1.5023459     -1.0058917      1.4599418
O       1.8416244     -1.4806834      2.6594459
C       1.2662775     -2.7366774      3.0249807
C       1.8615146     -3.1468722      4.3503746
C       2.3548534      0.1644557      1.0689676
N       1.8260496      0.8725775     -0.0353107
C       2.4721975      1.9708373     -0.2611807
C       2.4055721      2.7489943     -1.5042648
C       1.9167596      2.1994721     -2.6965330
C       1.8511972      2.9790935     -3.8481015
C       2.2923098      4.3048085     -3.8300486
C       2.8168053      4.8463876     -2.6544793
C       2.8786915      4.0673553     -1.5012988
H       0.1715909     -2.6250375      3.0835259
H       1.4869570     -3.4594672      2.2258678
H       1.4527429     -4.1172737      4.6616154
H       1.6297958     -2.4039181      5.1260547
H       2.9529286     -3.2377618      4.2674357
H       0.6034555      0.1609908     -0.9635160
H       2.5739030      0.7832936      1.9515613
H       3.0436627      2.4464111      0.5495806
H       1.5794129      1.1630702     -2.7061282
H       1.4618708      2.5483371     -4.7725236
H       2.2409646      4.9110243     -4.7363688
H       3.1788537      5.8759356     -2.6389338
H       3.2828064      4.4876523     -0.5767173
H      -3.0707680     -4.4886491      1.1972230
C      -2.9082099     -3.4693684      1.5334780
H      -1.2111887     -2.5615497      0.3934604
H      -5.1224112     -2.8854183      4.0286916
C      -2.0061056     -2.5328711      1.1296998
H      -4.4263604     -4.4947768      3.6643653
C      -4.7716229     -3.5490535      3.2325147
N      -3.6624860     -2.9036421      2.5403463
H      -6.4434937     -0.1188554      0.8943321
H      -7.2428196     -1.5248876     -1.0160064
C      -5.7372560     -0.4477881      0.1296519
C      -6.1931335     -1.2347812     -0.9539416
N      -2.2279866     -1.4091798      1.9035188
H      -5.5831029     -3.7363888      2.5197647
C      -3.2389902     -1.6624163      2.7418980
C      -4.4145497     -0.0737929      0.2200566
C      -5.3054536     -1.6103832     -1.9359820
H      -1.1301541     -0.1093531      3.9101987
H      -4.0917573      0.5621037      1.0466166
H      -5.6407492     -2.2002672     -2.7921540
C      -1.6124096     -0.1133705      1.7941421
C      -1.1003658      0.4600130      2.9796793
C      -3.4623863     -0.4770748     -0.7605564
C      -3.9372992     -1.2422964     -1.8649449
H      -3.6569881     -0.9557712      3.4554160
C      -2.0694280     -0.1398627     -0.6616226
C      -3.0120695     -1.6169873     -2.8815872
C      -1.5666743      0.5292298      0.5680864
C      -0.5469948      1.7155025      2.9366922
H      -3.3684555     -2.2025052     -3.7318541
H      -0.1341314      2.1653512      3.8412609
C      -1.7011224     -1.2482304     -2.8004344
C      -1.1947584     -0.5012588     -1.6879077
C      -1.0243861      1.8520930      0.5290463
C      -0.5055690      2.4431499      1.7192739
O       0.0976789     -0.2265678     -1.7572282
H      -0.9829055     -1.5240679     -3.5734502
C      -0.9884151      2.6028769     -0.6798317
C       0.0486780      3.7521703      1.6609773
H      -1.3792116      2.1559546     -1.5945371
H       0.4513545      4.1910307      2.5761926
C      -0.4566806      3.8676684     -0.7019549
C       0.0724560      4.4488679      0.4782229
H      -0.4124544      4.4216491     -1.6416977
H       0.5043106      5.4502102      0.4388351
H       3.7165806     -2.4365768     -3.0509835
C       4.4972502      0.3410805     -1.5059966
C       4.6391707      0.5757572     -0.1235175
C       3.5176362     -1.4644882     -0.4305134
C       3.2838316     -1.4382559     -2.8862330
C       3.8525989     -0.4185393      0.6205963
N       3.7140941     -0.8763429     -1.6348993
O       3.0952065     -2.5922894     -0.2351375
O       4.8857370      0.9257245     -2.5166725
H       5.2339641      1.3845417      0.2911351
H       3.6200049     -0.7569666     -3.6775957
H       4.2607833     -0.8612338      1.5331051
H       2.1861417     -1.5175740     -2.9039089
          85

O       0.6531958     -1.5092371      0.7726205
C       1.5036093     -1.0053729      1.4626914
O       1.8466843     -1.4830781      2.6599740
C       1.2647406     -2.7357260      3.0270938
C       1.8595251     -3.1494672      4.3515669
C       2.3559624      0.1644967      1.0698073
N       1.8248086      0.8713964     -0.0348905
C       2.4697556      1.9699624     -0.2615446
C       2.4030332      2.7479857     -1.5046335
C       1.9151543      2.1988783     -2.6974387
C       1.8513613      2.9788426     -3.8489243
C       2.2928898      4.3044056     -3.8299484
C       2.8157415      4.8457293     -2.6535184
C       2.8761127      4.0663362     -1.5005851
H       0.1707915     -2.6174277      3.0874225
H       1.4795700     -3.4601419      2.2277928
H       1.4451343     -4.1174002      4.6632591
H       1.6334767     -2.4051400      5.1276636
H       2.9503018     -3.2472076      4.2670940
H       0.6035019      0.1600204     -0.9629468
H       2.5747846      0.7844802      1.9511945
H       3.0417564      2.4458317      0.5486723
H       1.5773263      1.1626299     -2.7074813
H       1.4630957      2.5484921     -4.7739828
H       2.2430208      4.9107939     -4.7362371
H       3.1778655      5.8752368     -2.6372231
H       3.2792315      4.4861624     -0.5753591
H      -3.0715826     -4.4885639      1.1968121
C      -2.9088786     -3.4692790      1.5331999
H      -1.2120658     -2.5614072      0.3926761
H      -5.1218938     -2.8855920      4.0295551
C      -2.0068429     -2.5327711      1.1293514
H      -4.4262853     -4.4949610      3.6644766
C      -4.7716701     -3.5491016      3.2330226
N      -3.6628486     -2.9036804      2.5403779
H      -6.4438265     -0.1191832      0.8942539
H      -7.2429524     -1.5255822     -1.0159055
C      -5.7375572     -0.4480419      0.1295703
C      -6.1933262     -1.2352394     -0.9539244
N      -2.2285159     -1.4091722      1.9033447
H      -5.5836108     -3.7361784      2.5207277
C      -3.2392562     -1.6625022      2.7419691
C      -4.4149270     -0.0737796      0.2198837
C      -5.3056282     -1.6107345     -1.9359842
H      -1.1297689     -0.1100648      3.9099279
H      -4.0922122      0.5622187      1.0463923
H      -5.6408402     -2.2007705     -2.7920847
C      -1.6129879     -0.1133722      1.7940984
C      -1.1001230      0.4594901      2.9795117
C      -3.4627194     -0.4770048     -0.7607141
C      -3.9375486     -1.2423716     -1.8650293
H      -3.6569898     -0.9559511      3.4557484
C      -2.0697904     -0.1397374     -0.6616724
C      -3.0122505     -1.6170559     -2.8815891
C      -1.5672737      0.5293028      0.5681324
C      -0.5460260      1.7146623      2.9364648
H      -3.3685147     -2.2026648     -3.7318437
H      -0.1324075      2.1641183      3.8408852
C      -1.7013233     -1.2482986     -2.8002809
C      -1.1949234     -0.5013449     -1.6877706
C      -1.0247665      1.8520288      0.5291283
C      -0.5051042      2.4426213      1.7192026
O       0.0976310     -0.2271410     -1.7569790
H      -0.9829942     -1.5243380     -3.5731088
C      -0.9894460      2.6030975     -0.6795825
C       0.0493398      3.7515456      1.6609130
H      -1.3809162      2.1564496     -1.5941374
H       0.4527145      4.1900859      2.5759780
C      -0.4577139      3.8678867     -0.7016421
C       0.0722986      4.4486354      0.4783672
H      -0.4141611      4.4222196     -1.6412070
H       0.5041845      5.4499657      0.4390160
H       3.7304893     -2.4365644     -3.0531325
C       4.5001976      0.3410152     -1.5068998
C       4.6389412      0.5759746     -0.1244049
C       3.5149217     -1.4629373     -0.4332692
C       3.2926079     -1.4401168     -2.8899536
C       3.8503886     -0.4179739      0.6191456
N       3.7158370     -0.8758203     -1.6372381
O       3.0895738     -2.5897690     -0.2383236
O       4.8918598      0.9244126     -2.5171939
H       5.2338886      1.3841968      0.2912347
H       3.6285165     -0.7574726     -3.6802636
H       4.2593997     -0.8628189      1.5295981
H       2.1953669     -1.5247221     -2.9115403
