          85

O       0.4464878      2.1130246      1.2326783
C       0.9543498      2.5450821      0.2113855
O       1.2155877      3.8667760      0.0656707
C       0.9893315      4.6726958      1.2147686
C       1.4059376      6.0861799      0.8777620
C       1.3915007      1.7952755     -0.9334846
N       1.3297477      0.4579356     -0.9645155
C       1.8002133     -0.1673226     -2.0160461
C       1.8673449     -1.6168898     -2.1607872
C       1.8062810     -2.5009881     -1.0690518
C       1.8207078     -3.8784554     -1.2694458
C       1.9294847     -4.4084508     -2.5572404
C       2.0403263     -3.5402356     -3.6463855
C       2.0140075     -2.1629615     -3.4480838
H      -0.0742085      4.6197889      1.4971501
H       1.5712250      4.2616451      2.0533292
H       1.2384649      6.7465129      1.7394677
H       0.8247940      6.4681155      0.0264542
H       2.4722405      6.1209404      0.6137079
H       0.6743043     -0.2715801      0.3679543
H       1.6840733      2.3598617     -1.8277879
H       2.0600983      0.4218496     -2.9081003
H       1.7612624     -2.0968744     -0.0584440
H       1.7600211     -4.5466628     -0.4077811
H       1.9434037     -5.4888635     -2.7104483
H       2.1422656     -3.9411069     -4.6569467
H       2.0797057     -1.4878599     -4.3052210
H      -4.2172942      1.8830375      4.1869532
C      -3.5108755      1.6362988      3.4004159
H      -4.4301922      2.0495135      1.4092468
H      -1.6734104      1.8162739      5.5662807
C      -3.6141854      1.7218261      2.0465170
H      -0.7028767      0.4706383      4.8940425
C      -1.7132620      0.8772188      5.0030665
N      -2.2556323      1.1305292      3.6734872
H      -6.0697394     -2.4765029     -0.9758910
H      -5.9760727     -4.6162052      0.3132795
C      -5.1702775     -2.7293217     -0.4119556
C      -5.1192138     -3.9411454      0.3185130
N      -2.4177968      1.2665608      1.5246183
H      -2.3490927      0.1523156      5.5235690
C      -1.6118681      0.9179952      2.5302160
C      -4.0968908     -1.8675607     -0.4192501
C      -3.9873691     -4.2591189      1.0324904
H      -2.3647099      3.3385270     -0.0770808
H      -4.1503024     -0.9381316     -0.9888821
H      -3.9327666     -5.1891274      1.6027731
C      -2.1107047      1.1935497      0.1243073
C      -2.1618627      2.4066198     -0.6064341
C      -2.9104970     -2.1701701      0.3080969
C      -2.8657949     -3.3882436      1.0473768
H      -0.5859293      0.5700225      2.4020902
C      -1.7816669     -1.2863059      0.3242070
C      -1.6916336     -3.6968889      1.7924198
C      -1.8258827     -0.0208711     -0.4635109
C      -1.9200076      2.3910692     -1.9530839
H      -1.6545452     -4.6319777      2.3553216
H      -1.9354033      3.3198426     -2.5261237
C      -0.6266655     -2.8407254      1.8036379
C      -0.6543408     -1.6192317      1.0646893
C      -1.6119467     -0.0484289     -1.8827190
C      -1.6500381      1.1663907     -2.6262661
O       0.4189698     -0.8313724      1.1910660
H       0.2804501     -3.0641923      2.3674852
C      -1.3620243     -1.2651699     -2.5722475
C      -1.4177316      1.1307735     -4.0267867
H      -1.3055839     -2.1962573     -2.0061568
H      -1.4358679      2.0694334     -4.5843507
C      -1.1646093     -1.2721016     -3.9331081
C      -1.1836853     -0.0631028     -4.6683688
H      -0.9647600     -2.2146474     -4.4444776
H      -1.0106213     -0.0814402     -5.7455504
H       4.2378151     -0.5472350      2.7641590
C       4.3212797     -0.3852202     -0.4691546
C       4.3423237      0.8462409     -1.2874586
C       3.6109140      1.3567359      0.8445698
C       3.6575697     -0.9077171      1.9028520
C       3.9007051      1.8770765     -0.5245293
N       3.8086971     -0.0138295      0.7810265
O       3.3058051      1.9640988      1.8495675
O       4.7006117     -1.5040981     -0.7426992
H       4.7133264      0.8556179     -2.3093465
H       4.0332064     -1.8901130      1.5909731
H       3.8761802      2.9427703     -0.7452232
H       2.5985112     -0.9910388      2.1828564
          85

O       0.4457622      2.1165102      1.2302504
C       0.9601578      2.5477623      0.2121632
O       1.2259396      3.8684929      0.0680747
C       0.9888874      4.6762501      1.2135756
C       1.4066346      6.0897522      0.8782860
C       1.4013906      1.7965077     -0.9306334
N       1.3340159      0.4590655     -0.9619382
C       1.8049514     -0.1662927     -2.0130511
C       1.8695673     -1.6159949     -2.1588349
C       1.8088748     -2.5007078     -1.0676532
C       1.8219695     -3.8780743     -1.2692231
C       1.9287550     -4.4070294     -2.5575988
C       2.0386347     -3.5381165     -3.6462805
C       2.0138038     -2.1610124     -3.4467762
H      -0.0768610      4.6223640      1.4866015
H       1.5637646      4.2674586      2.0578723
H       1.2302788      6.7509512      1.7373956
H       0.8328598      6.4696828      0.0212937
H       2.4751170      6.1257213      0.6241125
H       0.6751348     -0.2708211      0.3681272
H       1.6920986      2.3598034     -1.8253847
H       2.0663629      0.4227855     -2.9046838
H       1.7652419     -2.0971521     -0.0567213
H       1.7618521     -4.5470104     -0.4080943
H       1.9417664     -5.4873361     -2.7116616
H       2.1387889     -3.9382852     -4.6572861
H       2.0789870     -1.4852008     -4.3033818
H      -4.2165603      1.8859218      4.1862989
C      -3.5105415      1.6383884      3.3998711
H      -4.4294940      2.0521232      1.4087651
H      -1.6785638      1.8147105      5.5680819
C      -3.6138836      1.7237567      2.0459366
H      -0.7019032      0.4746656      4.8937773
C      -1.7140109      0.8769303      5.0025547
N      -2.2557470      1.1315320      3.6729565
H      -6.0703807     -2.4774938     -0.9744998
H      -5.9756476     -4.6173638      0.3143298
C      -5.1706164     -2.7301687     -0.4109819
C      -5.1189582     -3.9420869      0.3192911
N      -2.4179537      1.2672317      1.5240722
H      -2.3475942      0.1482609      5.5204808
C      -1.6122465      0.9182215      2.5296726
C      -4.0974358     -1.8681201     -0.4186341
C      -3.9867139     -4.2598488      1.0327250
H      -2.3636609      3.3388061     -0.0777106
H      -4.1513349     -0.9386283     -0.9881341
H      -3.9315918     -5.1899182      1.6028569
C      -2.1107244      1.1937489      0.1238457
C      -2.1609825      2.4068107     -0.6069629
C      -2.9106454     -2.1704492      0.3082017
C      -2.8653788     -3.3886410      1.0472749
H      -0.5866259      0.5692742      2.4014797
C      -1.7819943     -1.2862453      0.3241180
C      -1.6908640     -3.6970725      1.7918456
C      -1.8262305     -0.0208696     -0.4637247
C      -1.9188667      2.3911064     -1.9535380
H      -1.6533020     -4.6322542      2.3545613
H      -1.9338057      3.3198284     -2.5266689
C      -0.6261636     -2.8405732      1.8029369
C      -0.6543167     -1.6189048      1.0642645
C      -1.6119655     -0.0485686     -1.8829015
C      -1.6494781      1.1662227     -2.6265600
O       0.4187496     -0.8306602      1.1909903
H       0.2811533     -3.0638770      2.3665247
C      -1.3628071     -1.2654909     -2.5724282
C      -1.4176378      1.1304060     -4.0271514
H      -1.3068498     -2.1966008     -2.0063264
H      -1.4354360      2.0690476     -4.5847520
C      -1.1658923     -1.2725903     -3.9333632
C      -1.1846001     -0.0636413     -4.6687382
H      -0.9668422     -2.2152861     -4.4447702
H      -1.0120089     -0.0821827     -5.7459892
H       4.2438873     -0.5498841      2.7646567
C       4.3244329     -0.3844557     -0.4685369
C       4.3425792      0.8472216     -1.2851255
C       3.6101109      1.3540961      0.8478844
C       3.6635435     -0.9108925      1.9035974
C       3.8975756      1.8767134     -0.5209616
N       3.8111002     -0.0155837      0.7825534
O       3.3032144      1.9593804      1.8537357
O       4.7059466     -1.5025900     -0.7426826
H       4.7145646      0.8590277     -2.3066113
H       4.0411423     -1.8920667      1.5902830
H       3.8755108      2.9426646     -0.7386357
H       2.6049702     -0.9969802      2.1849541
          85

O       0.4403883      2.1242812      1.2258056
C       0.9684585      2.5529211      0.2145653
O       1.2457704      3.8707900      0.0728996
C       0.9885692      4.6827262      1.2115132
C       1.4085889      6.0961275      0.8787956
C       1.4193515      1.7983262     -0.9257290
N       1.3380562      0.4595725     -0.9566739
C       1.8106065     -0.1653258     -2.0067821
C       1.8719411     -1.6153694     -2.1548250
C       1.8133665     -2.5012601     -1.0647374
C       1.8248507     -3.8784008     -1.2688749
C       1.9273973     -4.4049253     -2.5585619
C       2.0343995     -3.5344695     -3.6462917
C       2.0116257     -2.1577554     -3.4441377
H      -0.0815959      4.6271578      1.4667255
H       1.5498674      4.2774208      2.0666499
H       1.2151193      6.7592283      1.7327236
H       0.8487894      6.4718950      0.0107348
H       2.4813300      6.1346387      0.6434911
H       0.6762850     -0.2701219      0.3681917
H       1.6912774      2.3577726     -1.8227613
H       2.0741423      0.4237409     -2.8977167
H       1.7724906     -2.0988624     -0.0531324
H       1.7667521     -4.5490143     -0.4089382
H       1.9391759     -5.4849976     -2.7144955
H       2.1309110     -3.9330446     -4.6582519
H       2.0749962     -1.4802934     -4.2995568
H      -4.2151351      1.8936382      4.1849576
C      -3.5098573      1.6438146      3.3985773
H      -4.4279209      2.0590449      1.4073836
H      -1.6821693      1.8132572      5.5690262
C      -3.6131395      1.7287319      2.0446154
H      -0.7032854      0.4757275      4.8929491
C      -1.7159546      0.8766641      5.0014506
N      -2.2564434      1.1336145      3.6717977
H      -6.0723525     -2.4802205     -0.9711160
H      -5.9751386     -4.6206023      0.3167199
C      -5.1718708     -2.7326338     -0.4086222
C      -5.1188344     -3.9448319      0.3210814
N      -2.4185449      1.2684579      1.5228902
H      -2.3493632      0.1462089      5.5171070
C      -1.6135538      0.9180956      2.5285780
C      -4.0991583     -1.8699302     -0.4170599
C      -3.9856417     -4.2621646      1.0331925
H      -2.3612594      3.3389650     -0.0790818
H      -4.1542416     -0.9402357     -0.9861494
H      -3.9292969     -5.1924199      1.6029022
C      -2.1112676      1.1936583      0.1228272
C      -2.1593383      2.4067353     -0.6081982
C      -2.9114210     -2.1716736      0.3085194
C      -2.8648695     -3.3902075      1.0470047
H      -0.5886072      0.5668233      2.4006525
C      -1.7831983     -1.2866760      0.3240136
C      -1.6895644     -3.6982802      1.7904623
C      -1.8277810     -0.0214476     -0.4641956
C      -1.9167363      2.3906983     -1.9546157
H      -1.6509255     -4.6337676      2.3526001
H      -1.9303996      3.3193374     -2.5279107
C      -0.6255342     -2.8409909      1.8013833
C      -0.6547321     -1.6187803      1.0635226
C      -1.6132111     -0.0494744     -1.8834197
C      -1.6490382      1.1652670     -2.6273232
O       0.4178310     -0.8299305      1.1910887
H       0.2822745     -3.0639544      2.3643153
C      -1.3659663     -1.2668002     -2.5729864
C      -1.4179357      1.1290548     -4.0280223
H      -1.3113473     -2.1980025     -2.0069016
H      -1.4346210      2.0676985     -4.5856441
C      -1.1698915     -1.2742527     -3.9340642
C      -1.1872737     -0.0653911     -4.6696515
H      -0.9727415     -2.2173081     -4.4455539
H      -1.0154738     -0.0843685     -5.7470136
H       4.2575835     -0.5537066      2.7617376
C       4.3246963     -0.3822380     -0.4724765
C       4.3301283      0.8484685     -1.2858420
C       3.5998100      1.3475571      0.8510252
C       3.6762532     -0.9177435      1.9024472
C       3.8729575      1.8752923     -0.5192511
N       3.8109651     -0.0195455      0.7822146
O       3.2919319      1.9484530      1.8595182
O       4.7138454     -1.4985600     -0.7467169
H       4.7010650      0.8653438     -2.3077272
H       4.0601360     -1.8953372      1.5856000
H       3.8613923      2.9412111     -0.7273665
H       2.6194890     -1.0125621      2.1891341
          85

O       0.4372559      2.1280120      1.2182950
C       0.9786106      2.5564819      0.2148541
O       1.2601029      3.8726581      0.0758959
C       0.9857143      4.6871963      1.2092087
C       1.4090738      6.1002877      0.8800955
C       1.4441366      1.7968912     -0.9174098
N       1.3436963      0.4594729     -0.9507452
C       1.8163669     -0.1652640     -2.0009681
C       1.8721903     -1.6157210     -2.1518084
C       1.8151260     -2.5026390     -1.0628073
C       1.8269579     -3.8795733     -1.2690950
C       1.9279563     -4.4037076     -2.5598070
C       2.0316141     -3.5318698     -3.6467354
C       2.0084834     -2.1555383     -3.4423192
H      -0.0878105      4.6305238      1.4487442
H       1.5353308      4.2842125      2.0728826
H       1.2046450      6.7639011      1.7310140
H       0.8599116      6.4750326      0.0049375
H       2.4845938      6.1389374      0.6583035
H       0.6774652     -0.2696006      0.3684614
H       1.7123635      2.3551560     -1.8211015
H       2.0791877      0.4235678     -2.8919639
H       1.7759686     -2.1012542     -0.0506576
H       1.7708740     -4.5517309     -0.4102787
H       1.9408462     -5.4835337     -2.7173261
H       2.1263197     -3.9290247     -4.6593939
H       2.0702272     -1.4765205     -4.2965949
H      -4.2139914      1.8996417      4.1844549
C      -3.5095745      1.6477905      3.3979616
H      -4.4273149      2.0644232      1.4069126
H      -1.6871324      1.8117466      5.5703324
C      -3.6131253      1.7323718      2.0439842
H      -0.7034283      0.4787714      4.8922817
C      -1.7174449      0.8763308      5.0006637
N      -2.2573013      1.1348683      3.6710334
H      -6.0743457     -2.4825572     -0.9686166
H      -5.9752120     -4.6232753      0.3185415
C      -5.1733147     -2.7347494     -0.4069058
C      -5.1192058     -3.9471253      0.3224124
N      -2.4198090      1.2690187      1.5220913
H      -2.3491847      0.1427811      5.5139865
C      -1.6152966      0.9173762      2.5276944
C      -4.1009649     -1.8715545     -0.4159709
C      -3.9852966     -4.2641062      1.0335374
H      -2.3605986      3.3388151     -0.0798974
H      -4.1569758     -0.9417268     -0.9847715
H      -3.9280403     -5.1944745      1.6029678
C      -2.1127081      1.1932795      0.1220834
C      -2.1590374      2.4064724     -0.6089425
C      -2.9125195     -2.1728465      0.3086612
C      -2.8649508     -3.3915772      1.0467614
H      -0.5913101      0.5633460      2.3995941
C      -1.7846677     -1.2871975      0.3238085
C      -1.6890337     -3.6992190      1.7894258
C      -1.8298448     -0.0220959     -0.4646139
C      -1.9160366      2.3903991     -1.9552255
H      -1.6495357     -4.6348552      2.3512553
H      -1.9287748      3.3190472     -2.5285085
C      -0.6255468     -2.8412770      1.8001646
C      -0.6555421     -1.6187301      1.0628024
C      -1.6149777     -0.0501474     -1.8838545
C      -1.6493924      1.1646760     -2.6277754
O       0.4165550     -0.8292956      1.1911977
H       0.2825968     -3.0638508      2.3627090
C      -1.3693176     -1.2676910     -2.5736562
C      -1.4184558      1.1284378     -4.0285016
H      -1.3162032     -2.1991086     -2.0077935
H      -1.4341453      2.0671877     -4.5859565
C      -1.1733230     -1.2751087     -3.9347531
C      -1.1892314     -0.0661612     -4.6702689
H      -0.9775901     -2.2183449     -4.4464553
H      -1.0175186     -0.0852795     -5.7476361
H       4.2717779     -0.5531975      2.7569441
C       4.3212470     -0.3799684     -0.4770849
C       4.3115138      0.8478115     -1.2897514
C       3.5881715      1.3433488      0.8518936
C       3.6876050     -0.9205889      1.9010328
C       3.8443059      1.8713244     -0.5211012
N       3.8086718     -0.0212662      0.7808611
O       3.2810812      1.9420996      1.8627447
O       4.7182884     -1.4944411     -0.7492965
H       4.6863351      0.8709445     -2.3098284
H       4.0761052     -1.8952740      1.5810353
H       3.8379128      2.9403547     -0.7246769
H       2.6335787     -1.0229425      2.1950153
          85

O       0.4342208      2.1300932      1.2110464
C       0.9880636      2.5591706      0.2159822
O       1.2678816      3.8742874      0.0767904
C       0.9823821      4.6900853      1.2070182
C       1.4091862      6.1027007      0.8809579
C       1.4752288      1.7958426     -0.9086172
N       1.3497053      0.4583761     -0.9448532
C       1.8195402     -0.1659268     -1.9959659
C       1.8698955     -1.6169093     -2.1498895
C       1.8145117     -2.5044121     -1.0616854
C       1.8286605     -3.8812240     -1.2695969
C       1.9300457     -4.4032571     -2.5610450
C       2.0301070     -3.5303239     -3.6474456
C       2.0044184     -2.1542830     -3.4413235
H      -0.0934145      4.6331362      1.4358347
H       1.5236824      4.2867089      2.0756912
H       1.2000022      6.7660441      1.7309043
H       0.8660843      6.4785500      0.0024877
H       2.4861789      6.1401484      0.6662672
H       0.6789803     -0.2690706      0.3688601
H       1.7222891      2.3516702     -1.8187834
H       2.0831013      0.4227597     -2.8866525
H       1.7764347     -2.1036345     -0.0491930
H       1.7748715     -4.5546947     -0.4116976
H       1.9458191     -5.4829001     -2.7197174
H       2.1246738     -3.9263492     -4.6605227
H       2.0646896     -1.4739236     -4.2946206
H      -4.2131420      1.9052382      4.1842962
C      -3.5096168      1.6513996      3.3976219
H      -4.4269791      2.0698981      1.4068080
H      -1.6894265      1.8107286      5.5704679
C      -3.6134151      1.7358715      2.0436586
H      -0.7047949      0.4788957      4.8918908
C      -1.7191089      0.8757517      5.0000485
N      -2.2585644      1.1353297      3.6704290
H      -6.0762780     -2.4845107     -0.9664422
H      -5.9754661     -4.6255441      0.3200886
C      -5.1747566     -2.7365472     -0.4054469
C      -5.1197054     -3.9490814      0.3235219
N      -2.4214994      1.2691461      1.5214944
H      -2.3506829      0.1414864      5.5125620
C      -1.6174248      0.9159804      2.5269183
C      -4.1026896     -1.8729778     -0.4150733
C      -3.9851722     -4.2657975      1.0337874
H      -2.3606446      3.3384018     -0.0801126
H      -4.1595253     -0.9430050     -0.9835729
H      -3.9271696     -5.1962671      1.6029767
C      -2.1146942      1.1927185      0.1215011
C      -2.1595320      2.4061118     -0.6094259
C      -2.9136242     -2.1739523      0.3087038
C      -2.8651745     -3.3928115      1.0465086
H      -0.5940992      0.5596995      2.3986433
C      -1.7861333     -1.2877328      0.3235188
C      -1.6887250     -3.6999770      1.7885463
C      -1.8322321     -0.0227895     -0.4650399
C      -1.9162628      2.3900830     -1.9556204
H      -1.6484628     -4.6357046      2.3501737
H      -1.9282082      3.3187877     -2.5288258
C      -0.6257621     -2.8414087      1.7991316
C      -0.6563963     -1.6185644      1.0621455
C      -1.6172740     -0.0507731     -1.8843211
C      -1.6504168      1.1641775     -2.6281621
O       0.4151978     -0.8286541      1.1914643
H       0.2826528     -3.0635293      2.3614223
C      -1.3727585     -1.2684325     -2.5744010
C      -1.4191269      1.1280793     -4.0288516
H      -1.3210064     -2.2000893     -2.0088077
H      -1.4338920      2.0669690     -4.5860843
C      -1.1761657     -1.2756408     -3.9354215
C      -1.1905733     -0.0665268     -4.6707553
H      -0.9812226     -2.2189471     -4.4473009
H      -1.0183448     -0.0856312     -5.7480344
H       4.2856673     -0.5510976      2.7514699
C       4.3165583     -0.3773161     -0.4828583
C       4.2937831      0.8462899     -1.2945175
C       3.5755001      1.3402490      0.8513928
C       3.6974957     -0.9217694      1.8995160
C       3.8134182      1.8685638     -0.5247436
N       3.8038990     -0.0217277      0.7786355
O       3.2696314      1.9377097      1.8639522
O       4.7205413     -1.4913272     -0.7512077
H       4.6701291      0.8740064     -2.3138584
H       4.0900287     -1.8937732      1.5761583
H       3.8232294      2.9387627     -0.7201059
H       2.6462560     -1.0311877      2.2020777
          85

O       0.4276310      2.1293187      1.2065301
C       0.9821849      2.5587887      0.2127154
O       1.2639739      3.8728705      0.0740080
C       0.9792784      4.6886780      1.2050101
C       1.4088365      6.1007715      0.8806276
C       1.4718031      1.7928212     -0.9107964
N       1.3402258      0.4552060     -0.9460669
C       1.8140036     -0.1679264     -1.9961973
C       1.8666542     -1.6190636     -2.1504729
C       1.8129658     -2.5062246     -1.0621593
C       1.8293542     -3.8830073     -1.2701523
C       1.9313422     -4.4045396     -2.5617189
C       2.0297786     -3.5315915     -3.6482206
C       2.0018854     -2.1556155     -3.4419463
H      -0.0967672      4.6332178      1.4327635
H       1.5193978      4.2831056      2.0733256
H       1.2003690      6.7633298      1.7313542
H       0.8668186      6.4787479      0.0024155
H       2.4860107      6.1365303      0.6666438
H       0.6775146     -0.2698111      0.3664892
H       1.7061181      2.3473786     -1.8259779
H       2.0730515      0.4206662     -2.8880674
H       1.7742455     -2.1053150     -0.0497227
H       1.7767801     -4.5567384     -0.4124074
H       1.9488212     -5.4841471     -2.7204566
H       2.1248145     -3.9275121     -4.6612759
H       2.0609543     -1.4749453     -4.2950689
H      -4.2127757      1.9082684      4.1843596
C      -3.5098429      1.6531447      3.3975741
H      -4.4270234      2.0726629      1.4069117
H      -1.6898190      1.8102823      5.5701284
C      -3.6138225      1.7374965      2.0436255
H      -0.7060292      0.4778446      4.8915362
C      -1.7201049      0.8752874      4.9997756
N      -2.2595370      1.1351930      3.6701970
H      -6.0774326     -2.4855002     -0.9654799
H      -5.9758102     -4.6267208      0.3206643
C      -5.1756772     -2.7374799     -0.4048324
C      -5.1201691     -3.9501074      0.3239310
N      -2.4227844      1.2687928      1.5212377
H      -2.3520650      0.1414219      5.5123849
C      -1.6190484      0.9145191      2.5265889
C      -4.1037637     -1.8737480     -0.4146664
C      -3.9853687     -4.2667349      1.0338167
H      -2.3618493      3.3379022     -0.0803983
H      -4.1609606     -0.9436991     -0.9829914
H      -3.9270574     -5.1972704      1.6028672
C      -2.1165824      1.1920667      0.1211335
C      -2.1609914      2.4055890     -0.6097870
C      -2.9144341     -2.1746689      0.3086883
C      -2.8655309     -3.3935794      1.0463480
H      -0.5964012      0.5562979      2.3983457
C      -1.7871693     -1.2882443      0.3232483
C      -1.6888497     -3.7005765      1.7880980
C      -1.8342029     -0.0233849     -0.4654105
C      -1.9175061      2.3897349     -1.9559177
H      -1.6482750     -4.6363472      2.3496308
H      -1.9289517      3.3185454     -2.5289638
C      -0.6261129     -2.8417655      1.7985412
C      -0.6571012     -1.6188299      1.0616714
C      -1.6195671     -0.0512569     -1.8847984
C      -1.6519782      1.1637588     -2.6285416
O       0.4142336     -0.8287691      1.1906637
H       0.2824802     -3.0637157      2.3606116
C      -1.3750441     -1.2688482     -2.5749024
C      -1.4198318      1.1278551     -4.0290761
H      -1.3239112     -2.2006060     -2.0094276
H      -1.4340395      2.0668340     -4.5861713
C      -1.1775050     -1.2758984     -3.9358026
C      -1.1910729     -0.0667146     -4.6710057
H      -0.9824957     -2.2191915     -4.4476838
H      -1.0181096     -0.0857231     -5.7481657
H       4.2912262     -0.5494462      2.7463162
C       4.3056569     -0.3768136     -0.4888798
C       4.2650333      0.8424837     -1.3028762
C       3.5590259      1.3371258      0.8474956
C       3.7001398     -0.9225401      1.8974329
C       3.7773406      1.8635640     -0.5326372
N       3.7963967     -0.0228374      0.7756318
O       3.2586770      1.9351828      1.8616689
O       4.7181302     -1.4886471     -0.7546864
H       4.6417627      0.8731223     -2.3219405
H       4.0948343     -1.8930532      1.5722463
H       3.7925596      2.9349791     -0.7250608
H       2.6509595     -1.0360646      2.2056722
          85

O       0.4274382      2.1295122      1.1992856
C       0.9949584      2.5607881      0.2147547
O       1.2675520      3.8744379      0.0740318
C       0.9768527      4.6905922      1.2040659
C       1.4090019      6.1019605      0.8815055
C       1.5168933      1.7925026     -0.8989607
N       1.3475448      0.4549336     -0.9399517
C       1.8156993     -0.1677161     -1.9914902
C       1.8635259     -1.6198480     -2.1496523
C       1.8116374     -2.5069804     -1.0617295
C       1.8303633     -3.8837793     -1.2703697
C       1.9332670     -4.4038404     -2.5623329
C       2.0295937     -3.5304743     -3.6487129
C       1.9989227     -2.1545792     -3.4416170
H      -0.1001437      4.6348357      1.4265834
H       1.5134659      4.2839061      2.0740454
H       1.2008196      6.7638932      1.7327494
H       0.8687819      6.4819171      0.0030750
H       2.4865051      6.1355666      0.6690353
H       0.6799831     -0.2686648      0.3663170
H       1.7175563      2.3458259     -1.8214346
H       2.0777095      0.4207731     -2.8825819
H       1.7736890     -2.1059991     -0.0492713
H       1.7796680     -4.5582625     -0.4131719
H       1.9533470     -5.4833242     -2.7216759
H       2.1256984     -3.9259162     -4.6618026
H       2.0576179     -1.4731697     -4.2941610
H      -4.2122234      1.9114916      4.1843945
C      -3.5098566      1.6551404      3.3974997
H      -4.4268619      2.0758007      1.4070015
H      -1.6903332      1.8100814      5.5698999
C      -3.6140259      1.7394512      2.0435575
H      -0.7072787      0.4770076      4.8914572
C      -1.7211191      0.8750696      4.9996143
N      -2.2603299      1.1353515      3.6699815
H      -6.0784649     -2.4863381     -0.9642636
H      -5.9759272     -4.6277698      0.3214752
C      -5.1764301     -2.7382808     -0.4040488
C      -5.1204029     -3.9510085      0.3244985
N      -2.4238459      1.2687410      1.5209900
H      -2.3535955      0.1416070      5.5121579
C      -1.6204079      0.9134828      2.5262805
C      -4.1046456     -1.8743943     -0.4141738
C      -3.9852635     -4.2675584      1.0339160
H      -2.3618125      3.3376641     -0.0805932
H      -4.1622826     -0.9442548     -0.9823050
H      -3.9266057     -5.1981697      1.6028072
C      -2.1178888      1.1916303      0.1208562
C      -2.1611264      2.4053119     -0.6099838
C      -2.9149980     -2.1752297      0.3087038
C      -2.8655868     -3.3941801      1.0462158
H      -0.5982953      0.5535150      2.3979629
C      -1.7879543     -1.2885100      0.3230694
C      -1.6885431     -3.7007285      1.7876416
C      -1.8357061     -0.0238284     -0.4656566
C      -1.9175681      2.3895907     -1.9560784
H      -1.6474656     -4.6365000      2.3491409
H      -1.9285806      3.3184694     -2.5290060
C      -0.6261180     -2.8414986      1.7980061
C      -0.6573705     -1.6183746      1.0612347
C      -1.6209994     -0.0515958     -1.8850416
C      -1.6526366      1.1635083     -2.6287419
O       0.4134456     -0.8278524      1.1905845
H       0.2825798     -3.0631926      2.3600158
C      -1.3769695     -1.2692210     -2.5753016
C      -1.4202391      1.1277504     -4.0292510
H      -1.3267500     -2.2011319     -2.0100094
H      -1.4339518      2.0668129     -4.5861992
C      -1.1787464     -1.2760536     -3.9361060
C      -1.1915200     -0.0667797     -4.6712072
H      -0.9839415     -2.2193387     -4.4480900
H      -1.0180661     -0.0857525     -5.7482808
H       4.3021084     -0.5478597      2.7419602
C       4.3041853     -0.3732109     -0.4940378
C       4.2560392      0.8397840     -1.3063578
C       3.5528941      1.3353173      0.8493026
C       3.7073203     -0.9221956      1.8960923
C       3.7518519      1.8616469     -0.5349371
N       3.7928849     -0.0213386      0.7748820
O       3.2517989      1.9339469      1.8638361
O       4.7207067     -1.4865319     -0.7537645
H       4.6337536      0.8749648     -2.3246942
H       4.1039013     -1.8906270      1.5671155
H       3.7923028      2.9334449     -0.7166648
H       2.6606262     -1.0402856      2.2111767
          85

O       0.4233379      2.1280193      1.1927406
C       0.9959160      2.5612336      0.2132834
O       1.2643305      3.8739691      0.0719453
C       0.9738989      4.6900095      1.2030140
C       1.4088632      6.1005941      0.8816349
C       1.5350189      1.7902751     -0.8957720
N       1.3429754      0.4521648     -0.9389398
C       1.8119703     -0.1688734     -1.9902264
C       1.8600446     -1.6217086     -2.1502862
C       1.8099724     -2.5082086     -1.0622219
C       1.8310200     -3.8850611     -1.2707852
C       1.9347084     -4.4044913     -2.5628545
C       2.0296396     -3.5312618     -3.6494534
C       1.9965221     -2.1553564     -3.4422633
H      -0.1032616      4.6353393      1.4244998
H       1.5098720      4.2808493      2.0721847
H       1.2029175      6.7618183      1.7339408
H       0.8686865      6.4828683      0.0042130
H       2.4862516      6.1318441      0.6683767
H       0.6801268     -0.2688200      0.3638176
H       1.7071269      2.3425402     -1.8255249
H       2.0721491      0.4194779     -2.8818245
H       1.7717776     -2.1068153     -0.0499273
H       1.7816919     -4.5597931     -0.4137530
H       1.9566891     -5.4839430     -2.7222337
H       2.1267596     -3.9267170     -4.6623998
H       2.0546786     -1.4736690     -4.2946114
H      -4.2119400      1.9141941      4.1843883
C      -3.5100487      1.6567166      3.3974343
H      -4.4267939      2.0783232      1.4070300
H      -1.6909572      1.8099627      5.5696423
C      -3.6143101      1.7409567      2.0434975
H      -0.7083523      0.4764677      4.8913697
C      -1.7220580      0.8748798      4.9994993
N      -2.2612074      1.1352915      3.6698339
H      -6.0793622     -2.4869210     -0.9632864
H      -5.9760904     -4.6285718      0.3220131
C      -5.1770960     -2.7388666     -0.4034456
C      -5.1206502     -3.9517047      0.3248690
N      -2.4248755      1.2685042      1.5207936
H      -2.3547980      0.1416985      5.5121148
C      -1.6218125      0.9122073      2.5260812
C      -4.1054115     -1.8748895     -0.4137828
C      -3.9852482     -4.2682555      1.0338908
H      -2.3623123      3.3373399     -0.0808028
H      -4.1633894     -0.9446424     -0.9816890
H      -3.9263416     -5.1989548      1.6026128
C      -2.1193989      1.1910897      0.1205662
C      -2.1618436      2.4049482     -0.6102303
C      -2.9155354     -2.1757502      0.3086853
C      -2.8656953     -3.3947441      1.0460488
H      -0.6003824      0.5501859      2.3978438
C      -1.7887183     -1.2888563      0.3228607
C      -1.6884189     -3.7010237      1.7872559
C      -1.8373192     -0.0243063     -0.4659346
C      -1.9181955      2.3893936     -1.9562884
H      -1.6470322     -4.6368019      2.3487273
H      -1.9287844      3.3183627     -2.5290716
C      -0.6262181     -2.8415131      1.7975360
C      -0.6577233     -1.6182945      1.0607769
C      -1.6227402     -0.0519395     -1.8853655
C      -1.6537197      1.1632111     -2.6290211
O       0.4126680     -0.8274609      1.1896916
H       0.2825943     -3.0629747      2.3594622
C      -1.3786769     -1.2695192     -2.5756257
C      -1.4208085      1.1276006     -4.0294421
H      -1.3290564     -2.2015167     -2.0104345
H      -1.4341680      2.0667167     -4.5862990
C      -1.1796022     -1.2761961     -3.9363187
C      -1.1918482     -0.0668961     -4.6713786
H      -0.9846760     -2.2194599     -4.4483033
H      -1.0178495     -0.0858390     -5.7483586
H       4.3074745     -0.5474526      2.7376759
C       4.2967520     -0.3711851     -0.5007651
C       4.2316868      0.8350808     -1.3134808
C       3.5391422      1.3322277      0.8477237
C       3.7099239     -0.9224203      1.8939599
C       3.7091638      1.8561211     -0.5421463
N       3.7871833     -0.0209185      0.7730392
O       3.2438356      1.9329403      1.8633358
O       4.7199305     -1.4843569     -0.7551513
H       4.6113617      0.8755971     -2.3307504
H       4.1077528     -1.8893781      1.5621342
H       3.7701008      2.9289335     -0.7157625
H       2.6650101     -1.0437930      2.2140406
          85

O       0.4182515      2.1265667      1.1874761
C       0.9942606      2.5612087      0.2118253
O       1.2585872      3.8729378      0.0692977
C       0.9711280      4.6886985      1.2021666
C       1.4088512      6.0984108      0.8816494
C       1.5494844      1.7879895     -0.8938020
N       1.3350740      0.4490100     -0.9392828
C       1.8060449     -0.1703176     -1.9898846
C       1.8562784     -1.6238928     -2.1514551
C       1.8083991     -2.5096131     -1.0630762
C       1.8317354     -3.8865610     -1.2712999
C       1.9359325     -4.4056427     -2.5633889
C       2.0299993     -3.5327228     -3.6503032
C       1.9945846     -2.1567560     -3.4432745
H      -0.1057684      4.6355760      1.4247973
H       1.5080203      4.2765271      2.0693023
H       1.2057852      6.7588834      1.7351977
H       0.8680687      6.4830688      0.0056716
H       2.4859586      6.1273108      0.6668034
H       0.6796619     -0.2690891      0.3606387
H       1.6920568      2.3395166     -1.8297015
H       2.0641522      0.4178936     -2.8821107
H       1.7696795     -2.1076474     -0.0510184
H       1.7836713     -4.5613571     -0.4142951
H       1.9593347     -5.4850930     -2.7226468
H       2.1282294     -3.9283605     -4.6630308
H       2.0523160     -1.4749935     -4.2955847
H      -4.2118247      1.9168613      4.1842853
C      -3.5103425      1.6582696      3.3973305
H      -4.4266650      2.0808406      1.4069511
H      -1.6916230      1.8099970      5.5693665
C      -3.6145820      1.7424570      2.0433911
H      -0.7093945      0.4761512      4.8912454
C      -1.7229981      0.8748140      4.9994107
N      -2.2621843      1.1352428      3.6697330
H      -6.0802132     -2.4872727     -0.9621907
H      -5.9762210     -4.6292183      0.3225416
C      -5.1776932     -2.7392917     -0.4027919
C      -5.1208377     -3.9522802      0.3252222
N      -2.4258529      1.2682929      1.5206256
H      -2.3558795      0.1418729      5.5121899
C      -1.6232597      0.9109354      2.5259746
C      -4.1060648     -1.8752836     -0.4133717
C      -3.9851568     -4.2689099      1.0337870
H      -2.3627426      3.3370582     -0.0810183
H      -4.1643511     -0.9449098     -0.9810268
H      -3.9260226     -5.1997236      1.6022998
C      -2.1208236      1.1905852      0.1203031
C      -2.1625400      2.4046125     -0.6104806
C      -2.9159534     -2.1762427      0.3086415
C      -2.8657078     -3.3953010      1.0458324
H      -0.6025298      0.5468313      2.3979048
C      -1.7893791     -1.2891909      0.3226681
C      -1.6882460     -3.7013449      1.7868834
C      -1.8388300     -0.0247402     -0.4661870
C      -1.9187998      2.3892173     -1.9565043
H      -1.6465954     -4.6371490      2.3482995
H      -1.9289606      3.3182796     -2.5291409
C      -0.6262768     -2.8415469      1.7971683
C      -0.6580278     -1.6182198      1.0604309
C      -1.6244186     -0.0522384     -1.8856745
C      -1.6548202      1.1629230     -2.6293186
O       0.4118834     -0.8270383      1.1886885
H       0.2826294     -3.0627846      2.3590428
C      -1.3800822     -1.2697449     -2.5758691
C      -1.4214388      1.1274199     -4.0296555
H      -1.3308094     -2.2017803     -2.0107202
H      -1.4345417      2.0665654     -4.5864620
C      -1.1802331     -1.2763316     -3.9364675
C      -1.1921991     -0.0670579     -4.6715529
H      -0.9850348     -2.2195759     -4.4483940
H      -1.0177606     -0.0860006     -5.7484560
H       4.3108309     -0.5470601      2.7333232
C       4.2883199     -0.3693461     -0.5078429
C       4.2067605      0.8297866     -1.3210982
C       3.5257020      1.3293901      0.8458340
C       3.7108648     -0.9225639      1.8914896
C       3.6670764      1.8508919     -0.5494502
N       3.7805729     -0.0203888      0.7708889
O       3.2361541      1.9323911      1.8622402
O       4.7183076     -1.4823073     -0.7568701
H       4.5873229      0.8750550     -2.3377111
H       4.1099034     -1.8881107      1.5569784
H       3.7498034      2.9240592     -0.7150860
H       2.6675644     -1.0469665      2.2159682
          85

O       0.4116781      2.1252406      1.1841664
C       0.9875954      2.5603958      0.2092224
O       1.2508095      3.8710094      0.0659054
C       0.9688608      4.6862840      1.2012264
C       1.4088235      6.0953936      0.8817342
C       1.5512765      1.7851273     -0.8955056
N       1.3211016      0.4454916     -0.9423646
C       1.7978364     -0.1724085     -1.9909860
C       1.8531581     -1.6264572     -2.1531177
C       1.8078043     -2.5112555     -1.0642021
C       1.8325677     -3.8882943     -1.2719044
C       1.9363605     -4.4073289     -2.5639951
C       2.0305185     -3.5349265     -3.6513166
C       1.9937215     -2.1588713     -3.4446790
H      -0.1073804      4.6349837      1.4270029
H       1.5079222      4.2708583      2.0654233
H       1.2078373      6.7548761      1.7365264
H       0.8675254      6.4822333      0.0070550
H       2.4857192      6.1228024      0.6657486
H       0.6774857     -0.2694220      0.3568574
H       1.6720154      2.3361216     -1.8353750
H       2.0532380      0.4156316     -2.8840465
H       1.7682750     -2.1085581     -0.0524472
H       1.7853323     -4.5630161     -0.4148305
H       1.9598411     -5.4868213     -2.7230150
H       2.1294242     -3.9309795     -4.6637874
H       2.0509783     -1.4771570     -4.2970583
H      -4.2120887      1.9194127      4.1839270
C      -3.5108354      1.6597542      3.3971193
H      -4.4262964      2.0832884      1.4065582
H      -1.6923342      1.8101066      5.5690971
C      -3.6147347      1.7439410      2.0431503
H      -0.7100885      0.4764515      4.8906987
C      -1.7237528      0.8748646      4.9992435
N      -2.2633489      1.1351880      3.6697170
H      -6.0810266     -2.4873469     -0.9609106
H      -5.9762670     -4.6297003      0.3230857
C      -5.1782030     -2.7395191     -0.4020681
C      -5.1209181     -3.9527189      0.3255506
N      -2.4265473      1.2682699      1.5205354
H      -2.3562429      0.1418558      5.5123760
C      -1.6246277      0.9098753      2.5260801
C      -4.1066057     -1.8755057     -0.4128982
C      -3.9849322     -4.2694698      1.0335953
H      -2.3631693      3.3368404     -0.0812798
H      -4.1652104     -0.9449238     -0.9801675
H      -3.9256121     -5.2003781      1.6019371
C      -2.1218872      1.1902091      0.1201335
C      -2.1631804      2.4043378     -0.6107538
C      -2.9161585     -2.1767045      0.3084654
C      -2.8655189     -3.3958503      1.0454706
H      -0.6045306      0.5438874      2.3983766
C      -1.7898018     -1.2895579      0.3224435
C      -1.6880236     -3.7016652      1.7866230
C      -1.8400015     -0.0250496     -0.4663551
C      -1.9191694      2.3891174     -1.9567166
H      -1.6463697     -4.6373827      2.3481928
H      -1.9288521      3.3183011     -2.5291689
C      -0.6261680     -2.8417240      1.7969154
C      -0.6582126     -1.6183187      1.0601847
C      -1.6258581     -0.0523863     -1.8859507
C      -1.6557605      1.1627048     -2.6296758
O       0.4109959     -0.8265230      1.1876941
H       0.2827262     -3.0626897      2.3589299
C      -1.3809533     -1.2697731     -2.5760105
C      -1.4220351      1.1271643     -4.0299668
H      -1.3315856     -2.2017624     -2.0108015
H      -1.4349700      2.0662965     -4.5868004
C      -1.1806377     -1.2764763     -3.9365732
C      -1.1926874     -0.0673496     -4.6718421
H      -0.9850784     -2.2197616     -4.4482987
H      -1.0181131     -0.0863671     -5.7487192
H       4.3109803     -0.5483694      2.7299931
C       4.2780745     -0.3682116     -0.5141011
C       4.1789860      0.8239731     -1.3293318
C       3.5123429      1.3269016      0.8433570
C       3.7094480     -0.9235472      1.8890957
C       3.6290097      1.8461381     -0.5564310
N       3.7739529     -0.0202511      0.7690433
O       3.2290415      1.9320366      1.8605532
O       4.7160538     -1.4797131     -0.7594822
H       4.5589703      0.8722949     -2.3459303
H       4.1092735     -1.8879541      1.5521599
H       3.7276210      2.9189742     -0.7168718
H       2.6671456     -1.0500825      2.2162013
          85

O       0.4073146      2.1231874      1.1817953
C       0.9760574      2.5599680      0.2047359
O       1.2460589      3.8693068      0.0640583
C       0.9672234      4.6845041      1.2006990
C       1.4083634      6.0935334      0.8817085
C       1.5277389      1.7833427     -0.9053354
N       1.3084639      0.4413808     -0.9466397
C       1.7932982     -0.1738768     -1.9931396
C       1.8529420     -1.6279660     -2.1541997
C       1.8076815     -2.5120723     -1.0649131
C       1.8327223     -3.8890857     -1.2723726
C       1.9359832     -4.4084530     -2.5643049
C       2.0305102     -3.5365235     -3.6518975
C       1.9934198     -2.1604714     -3.4455009
H      -0.1089410      4.6344647      1.4270547
H       1.5064942      4.2673055      2.0637780
H       1.2080905      6.7530276      1.7366315
H       0.8672255      6.4807708      0.0071203
H       2.4851928      6.1200564      0.6654691
H       0.6759302     -0.2711782      0.3536330
H       1.6389975      2.3329611     -1.8476429
H       2.0424062      0.4142174     -2.8878454
H       1.7677515     -2.1092333     -0.0532546
H       1.7856703     -4.5637461     -0.4152541
H       1.9588493     -5.4880263     -2.7228672
H       2.1290054     -3.9329438     -4.6642597
H       2.0503735     -1.4786659     -4.2978563
H      -4.2123334      1.9209566      4.1837406
C      -3.5112180      1.6604818      3.3970918
H      -4.4255931      2.0840110      1.4057393
H      -1.6924037      1.8100703      5.5687058
C      -3.6148134      1.7442069      2.0430234
H      -0.7102976      0.4768022      4.8896757
C      -1.7240348      0.8748476      4.9988562
N      -2.2641396      1.1348828      3.6696911
H      -6.0810540     -2.4874644     -0.9607609
H      -5.9762337     -4.6302195      0.3224608
C      -5.1783682     -2.7396241     -0.4016938
C      -5.1210932     -3.9529643      0.3256863
N      -2.4265803      1.2683805      1.5206020
H      -2.3558531      0.1416089      5.5124440
C      -1.6250517      0.9095597      2.5262500
C      -4.1069570     -1.8754974     -0.4127267
C      -3.9848773     -4.2695759      1.0334368
H      -2.3641647      3.3367852     -0.0814972
H      -4.1657806     -0.9448076     -0.9797782
H      -3.9253854     -5.2001754      1.6022521
C      -2.1222272      1.1900638      0.1201096
C      -2.1638678      2.4042571     -0.6108413
C      -2.9163669     -2.1768485      0.3083636
C      -2.8652359     -3.3962078      1.0449755
H      -0.6053509      0.5423748      2.3988611
C      -1.7901122     -1.2897850      0.3224424
C      -1.6879374     -3.7017808      1.7866678
C      -1.8403461     -0.0251794     -0.4662744
C      -1.9193457      2.3891255     -1.9567261
H      -1.6465996     -4.6369628      2.3491009
H      -1.9286468      3.3184635     -2.5289074
C      -0.6259330     -2.8420782      1.7966319
C      -0.6582169     -1.6189479      1.0596498
C      -1.6264916     -0.0523781     -1.8859955
C      -1.6562032      1.1625953     -2.6298958
O       0.4104045     -0.8265651      1.1869847
H       0.2824210     -3.0622985      2.3597695
C      -1.3811281     -1.2695430     -2.5761098
C      -1.4223020      1.1269388     -4.0302996
H      -1.3322014     -2.2016534     -2.0111065
H      -1.4353628      2.0660550     -4.5871603
C      -1.1808097     -1.2765543     -3.9366668
C      -1.1929743     -0.0676642     -4.6722160
H      -0.9856624     -2.2201313     -4.4480140
H      -1.0183070     -0.0869762     -5.7490775
H       4.3067671     -0.5518145      2.7301351
C       4.2714632     -0.3692010     -0.5177044
C       4.1563152      0.8201339     -1.3338506
C       3.5000999      1.3236871      0.8401324
C       3.7059749     -0.9250508      1.8878831
C       3.5915552      1.8400154     -0.5632597
N       3.7724208     -0.0214311      0.7683090
O       3.2265556      1.9315242      1.8582002
O       4.7133262     -1.4794517     -0.7623865
H       4.5376165      0.8719654     -2.3497781
H       4.1049535     -1.8898139      1.5508040
H       3.6992395      2.9129803     -0.7215029
H       2.6628538     -1.0505108      2.2131303
          85

O       0.4030294      2.1211566      1.1801086
C       0.9645419      2.5594958      0.2002676
O       1.2418293      3.8673383      0.0624796
C       0.9657526      4.6827201      1.2000605
C       1.4076072      6.0915476      0.8806381
C       1.5018886      1.7814328     -0.9157788
N       1.2969162      0.4374317     -0.9515014
C       1.7897877     -0.1751190     -1.9958760
C       1.8535640     -1.6289109     -2.1549569
C       1.8071048     -2.5124164     -1.0653417
C       1.8320200     -3.8894446     -1.2723794
C       1.9358375     -4.4093886     -2.5641776
C       2.0296149     -3.5376766     -3.6519352
C       1.9933773     -2.1615531     -3.4458622
H      -0.1103335      4.6337076      1.4270801
H       1.5055004      4.2647003      2.0624062
H       1.2075782      6.7507181      1.7359013
H       0.8657497      6.4791566      0.0066663
H       2.4843353      6.1183879      0.6637528
H       0.6743232     -0.2730122      0.3504306
H       1.6074836      2.3300389     -1.8591493
H       2.0318635      0.4124248     -2.8928051
H       1.7657372     -2.1094009     -0.0538207
H       1.7840261     -4.5636710     -0.4149605
H       1.9589484     -5.4889873     -2.7225426
H       2.1277125     -3.9341106     -4.6643244
H       2.0497784     -1.4801965     -4.2985730
H      -4.2122694      1.9194963      4.1838693
C      -3.5110862      1.6596292      3.3970694
H      -4.4264868      2.0831278      1.4064905
H      -1.6924141      1.8097697      5.5689292
C      -3.6149696      1.7437296      2.0431114
H      -0.7103181      0.4760189      4.8905045
C      -1.7239500      0.8744953      4.9991364
N      -2.2636657      1.1348279      3.6696349
H      -6.0813001     -2.4876617     -0.9610402
H      -5.9764247     -4.6300059      0.3228876
C      -5.1784746     -2.7397679     -0.4021705
C      -5.1211259     -3.9529641      0.3254082
N      -2.4268666      1.2679553      1.5204238
H      -2.3564445      0.1415579      5.5123596
C      -1.6251542      0.9090008      2.5260042
C      -4.1069739     -1.8756812     -0.4129272
C      -3.9851704     -4.2696473      1.0334968
H      -2.3647871      3.3365435     -0.0815528
H      -4.1656393     -0.9450867     -0.9801503
H      -3.9258232     -5.2005575      1.6018308
C      -2.1230458      1.1897500      0.1198508
C      -2.1646754      2.4040427     -0.6110455
C      -2.9165534     -2.1769093      0.3083901
C      -2.8658252     -3.3960556      1.0453805
H      -0.6058284      0.5410237      2.3985016
C      -1.7903002     -1.2898852      0.3222237
C      -1.6884405     -3.7021594      1.7865138
C      -1.8410075     -0.0253549     -0.4665955
C      -1.9204495      2.3889478     -1.9569602
H      -1.6470101     -4.6378712      2.3481128
H      -1.9300937      3.3181746     -2.5293655
C      -0.6265128     -2.8424195      1.7965447
C      -0.6586217     -1.6191383      1.0596877
C      -1.6270920     -0.0525672     -1.8862805
C      -1.6567714      1.1624857     -2.6299411
O       0.4106243     -0.8276265      1.1856904
H       0.2825301     -3.0633023      2.3583565
C      -1.3818097     -1.2698657     -2.5761355
C      -1.4224222      1.1270416     -4.0300888
H      -1.3327146     -2.2018585     -2.0109174
H      -1.4353781      2.0661569     -4.5869609
C      -1.1809115     -1.2765779     -3.9366483
C      -1.1927815     -0.0674966     -4.6719356
H      -0.9852997     -2.2198838     -4.4483171
H      -1.0179715     -0.0865005     -5.7487721
H       4.3040403     -0.5520733      2.7295489
C       4.2654095     -0.3706181     -0.5216249
C       4.1339290      0.8160919     -1.3391476
C       3.4876352      1.3204547      0.8360915
C       3.7035779     -0.9253509      1.8871293
C       3.5552438      1.8339657     -0.5704391
N       3.7703058     -0.0226585      0.7668372
O       3.2235263      1.9305004      1.8552929
O       4.7105576     -1.4799345     -0.7649437
H       4.5188612      0.8723794     -2.3536127
H       4.1022014     -1.8904763      1.5505572
H       3.6689462      2.9063068     -0.7278187
H       2.6602398     -1.0502710      2.2120228
          85

O       0.3968863      2.1197476      1.1778058
C       0.9549192      2.5582403      0.1971764
O       1.2349899      3.8646942      0.0596108
C       0.9641914      4.6801898      1.1988827
C       1.4066870      6.0886926      0.8789957
C       1.4929924      1.7786900     -0.9206761
N       1.2814821      0.4334805     -0.9563840
C       1.7835222     -0.1767011     -1.9979392
C       1.8523382     -1.6306732     -2.1563519
C       1.8063488     -2.5130523     -1.0660321
C       1.8315122     -3.8901706     -1.2722778
C       1.9353938     -4.4105276     -2.5638845
C       2.0293954     -3.5395756     -3.6521955
C       1.9932602     -2.1633432     -3.4468195
H      -0.1111934      4.6323438      1.4292090
H       1.5064300      4.2604518      2.0587635
H       1.2082880      6.7475405      1.7348812
H       0.8635630      6.4769631      0.0061188
H       2.4830805      6.1151073      0.6604765
H       0.6718565     -0.2745682      0.3458979
H       1.5821248      2.3271475     -1.8666328
H       2.0207648      0.4103711     -2.8963869
H       1.7638775     -2.1092887     -0.0548807
H       1.7831515     -4.5640714     -0.4146409
H       1.9581430     -5.4902093     -2.7217630
H       2.1273392     -3.9366648     -4.6643243
H       2.0493344     -1.4822813     -4.2997836
H      -4.2119087      1.9185503      4.1844066
C      -3.5109469      1.6587887      3.3973780
H      -4.4270735      2.0820813      1.4071163
H      -1.6920310      1.8093245      5.5688019
C      -3.6152905      1.7428325      2.0434743
H      -0.7102386      0.4751291      4.8907571
C      -1.7237534      0.8739555      4.9991767
N      -2.2633731      1.1342130      3.6695919
H      -6.0812730     -2.4880373     -0.9620832
H      -5.9768771     -4.6301063      0.3222935
C      -5.1786664     -2.7400135     -0.4028007
C      -5.1215824     -3.9530618      0.3250261
N      -2.4273312      1.2672038      1.5203843
H      -2.3565725      0.1412773      5.5123973
C      -1.6253317      0.9081161      2.5257662
C      -4.1072009     -1.8759242     -0.4133008
C      -3.9858725     -4.2696576      1.0335423
H      -2.3664243      3.3360374     -0.0816343
H      -4.1656950     -0.9454710     -0.9807480
H      -3.9266811     -5.2005328      1.6019523
C      -2.1243697      1.1891276      0.1196104
C      -2.1662277      2.4035899     -0.6112204
C      -2.9170601     -2.1770521      0.3084930
C      -2.8665430     -3.3961115      1.0456174
H      -0.6063905      0.5392184      2.3981292
C      -1.7907929     -1.2902086      0.3221718
C      -1.6891268     -3.7024893      1.7865549
C      -1.8422455     -0.0258220     -0.4668622
C      -1.9219951      2.3886670     -1.9571089
H      -1.6477266     -4.6383309      2.3479476
H      -1.9316598      3.3179303     -2.5294612
C      -0.6270703     -2.8429322      1.7964254
C      -0.6589477     -1.6195906      1.0595434
C      -1.6286745     -0.0529148     -1.8865980
C      -1.6580742      1.1622067     -2.6300833
O       0.4105787     -0.8286179      1.1840049
H       0.2821353     -3.0640952      2.3578744
C      -1.3828261     -1.2700773     -2.5763369
C      -1.4225947      1.1270927     -4.0299915
H      -1.3339498     -2.2021143     -2.0111718
H      -1.4352127      2.0662921     -4.5867309
C      -1.1809263     -1.2765363     -3.9367211
C      -1.1923134     -0.0673523     -4.6718160
H      -0.9848778     -2.2197300     -4.4484366
H      -1.0166589     -0.0861948     -5.7485153
H       4.3049028     -0.5494873      2.7262276
C       4.2555354     -0.3707809     -0.5273658
C       4.1067689      0.8097225     -1.3472798
C       3.4738614      1.3178153      0.8316792
C       3.7030418     -0.9246021      1.8856272
C       3.5190824      1.8285880     -0.5783744
N       3.7642278     -0.0229644      0.7640747
O       3.2168237      1.9296002      1.8516858
O       4.7080316     -1.4782065     -0.7677554
H       4.4931476      0.8692221     -2.3609925
H       4.1027474     -1.8891855      1.5487568
H       3.6476628      2.9005460     -0.7327257
H       2.6607477     -1.0512892      2.2133712
          85

O       0.3910155      2.1183109      1.1737961
C       0.9497233      2.5578478      0.1952692
O       1.2287595      3.8628835      0.0570277
C       0.9623213      4.6784385      1.1979771
C       1.4059220      6.0862965      0.8775439
C       1.5001112      1.7764434     -0.9215483
N       1.2695620      0.4294192     -0.9590635
C       1.7779609     -0.1779628     -1.9986506
C       1.8502408     -1.6324670     -2.1577234
C       1.8053350     -2.5136592     -1.0667664
C       1.8312595     -3.8909154     -1.2722396
C       1.9352127     -4.4115190     -2.5636868
C       2.0294080     -3.5412825     -3.6525315
C       1.9925798     -2.1649059     -3.4477777
H      -0.1124338      4.6315819      1.4309709
H       1.5068725      4.2565265      2.0552961
H       1.2097981      6.7449027      1.7341147
H       0.8614044      6.4754463      0.0059525
H       2.4819099      6.1116269      0.6570337
H       0.6705649     -0.2757927      0.3412071
H       1.5608294      2.3242200     -1.8711265
H       2.0115278      0.4087152     -2.8983264
H       1.7622450     -2.1090602     -0.0559965
H       1.7831072     -4.5645381     -0.4144096
H       1.9580229     -5.4912750     -2.7211196
H       2.1278577     -3.9389519     -4.6643501
H       2.0486324     -1.4840845     -4.3009289
H      -4.2116133      1.9182014      4.1849237
C      -3.5109287      1.6582698      3.3977054
H      -4.4275516      2.0816116      1.4076999
H      -1.6916497      1.8088777      5.5685786
C      -3.6156366      1.7422720      2.0438412
H      -0.7100789      0.4744461      4.8906502
C      -1.7235355      0.8734007      4.9991423
N      -2.2633757      1.1335217      3.6696027
H      -6.0814506     -2.4884403     -0.9628635
H      -5.9773593     -4.6303027      0.3218687
C      -5.1789979     -2.7403183     -0.4032874
C      -5.1220741     -3.9532485      0.3247276
N      -2.4279144      1.2664846      1.5203990
H      -2.3563750      0.1408866      5.5125667
C      -1.6257873      0.9070368      2.5256221
C      -4.1075741     -1.8762202     -0.4135636
C      -3.9865370     -4.2697622      1.0335774
H      -2.3680010      3.3354711     -0.0816886
H      -4.1659859     -0.9458416     -0.9811186
H      -3.9275101     -5.2005834      1.6020962
C      -2.1258315      1.1884143      0.1194273
C      -2.1676869      2.4030661     -0.6113447
C      -2.9176060     -2.1773350      0.3085057
C      -2.8671764     -3.3963045      1.0457466
H      -0.6073617      0.5367676      2.3979065
C      -1.7913782     -1.2906280      0.3220564
C      -1.6897297     -3.7027224      1.7866428
C      -1.8436512     -0.0263664     -0.4670953
C      -1.9234058      2.3883815     -1.9572087
H      -1.6484063     -4.6385297      2.3481085
H      -1.9330243      3.3177240     -2.5294357
C      -0.6275471     -2.8433181      1.7962700
C      -0.6592220     -1.6199420      1.0592410
C      -1.6304056     -0.0532643     -1.8869027
C      -1.6593953      1.1619149     -2.6302576
O       0.4102247     -0.8291350      1.1823792
H       0.2817314     -3.0645807      2.3575755
C      -1.3840070     -1.2702714     -2.5765823
C      -1.4228745      1.1270906     -4.0299740
H      -1.3354510     -2.2023672     -2.0114920
H      -1.4351616      2.0663700     -4.5865840
C      -1.1809865     -1.2764969     -3.9368239
C      -1.1919021     -0.0672454     -4.6717915
H      -0.9844639     -2.2196000     -4.4485351
H      -1.0153756     -0.0859389     -5.7483466
H       4.3070956     -0.5467584      2.7223814
C       4.2470320     -0.3698614     -0.5343141
C       4.0816230      0.8026831     -1.3552026
C       3.4602728      1.3149858      0.8282320
C       3.7034937     -0.9235134      1.8837206
C       3.4769859      1.8231129     -0.5862001
N       3.7580018     -0.0224254      0.7613773
O       3.2100935      1.9293314      1.8486554
O       4.7061918     -1.4767121     -0.7699106
H       4.4701651      0.8671266     -2.3677250
H       4.1045677     -1.8871304      1.5456638
H       3.6307116      2.8936162     -0.7336689
H       2.6625313     -1.0526509      2.2150301
          85

O       0.3864421      2.1170469      1.1685974
C       0.9493498      2.5582437      0.1946629
O       1.2244101      3.8619768      0.0552850
C       0.9604112      4.6777463      1.1974499
C       1.4053289      6.0848394      0.8765421
C       1.5212876      1.7750201     -0.9190566
N       1.2615960      0.4256425     -0.9598070
C       1.7742069     -0.1788985     -1.9979477
C       1.8482775     -1.6340770     -2.1587510
C       1.8044346     -2.5141164     -1.0672801
C       1.8311553     -3.8915032     -1.2721734
C       1.9352471     -4.4120526     -2.5635593
C       2.0293925     -3.5424181     -3.6528877
C       1.9917112     -2.1659164     -3.4485493
H      -0.1139536      4.6315405      1.4317887
H       1.5064794      4.2538090      2.0527893
H       1.2113206      6.7432923      1.7336765
H       0.8597804      6.4748697      0.0060219
H       2.4809819      6.1088114      0.6544178
H       0.6704225     -0.2765664      0.3366444
H       1.5449460      2.3216844     -1.8723127
H       2.0058957      0.4074283     -2.8983972
H       1.7610841     -2.1086673     -0.0568818
H       1.7834081     -4.5650138     -0.4142806
H       1.9583914     -5.4918556     -2.7207239
H       2.1284519     -3.9405584     -4.6644199
H       2.0478908     -1.4851795     -4.3017540
H      -4.2113370      1.9181636      4.1853706
C      -3.5109211      1.6579899      3.3979923
H      -4.4279101      2.0815378      1.4082087
H      -1.6912972      1.8085003      5.5683539
C      -3.6159287      1.7419944      2.0441579
H      -0.7099822      0.4738328      4.8904916
C      -1.7233738      0.8729190      4.9991044
N      -2.2634630      1.1329288      3.6696202
H      -6.0817099     -2.4888147     -0.9633580
H      -5.9777671     -4.6305375      0.3216140
C      -5.1793450     -2.7406218     -0.4036064
C      -5.1224966     -3.9534663      0.3245371
N      -2.4284802      1.2658937      1.5204093
H      -2.3562165      0.1405645      5.5127446
C      -1.6263031      0.9060078      2.5255024
C      -4.1079576     -1.8765149     -0.4137427
C      -3.9870604     -4.2699081      1.0336105
H      -2.3692279      3.3349754     -0.0817358
H      -4.1663575     -0.9461784     -0.9813513
H      -3.9281482     -5.2006864      1.6022158
C      -2.1271638      1.1877493      0.1192623
C      -2.1687638      2.4026045     -0.6114354
C      -2.9180858     -2.1776289      0.3084819
C      -2.8676806     -3.3965153      1.0458256
H      -0.6084306      0.5341911      2.3976975
C      -1.7919209     -1.2910133      0.3219273
C      -1.6901749     -3.7028631      1.7866995
C      -1.8449539     -0.0268772     -0.4672989
C      -1.9244538      2.3881592     -1.9572812
H      -1.6488804     -4.6386083      2.3482836
H      -1.9340465      3.3175758     -2.5293879
C      -0.6279135     -2.8435399      1.7961053
C      -0.6593842     -1.6200925      1.0589254
C      -1.6319200     -0.0535679     -1.8871559
C      -1.6604605      1.1616658     -2.6304095
O       0.4097897     -0.8292612      1.1809276
H       0.2814080     -3.0648396      2.3573432
C      -1.3851191     -1.2704491     -2.5768047
C      -1.4231412      1.1270904     -4.0299838
H      -1.3369436     -2.2026073     -2.0117922
H      -1.4351488      2.0664363     -4.5864829
C      -1.1810902     -1.2764565     -3.9369193
C      -1.1916002     -0.0671516     -4.6717951
H      -0.9841851     -2.2194824     -4.4486385
H      -1.0143485     -0.0857332     -5.7482275
H       4.3100838     -0.5446078      2.7189458
C       4.2410019     -0.3680176     -0.5414724
C       4.0604136      0.7955519     -1.3621131
C       3.4481239      1.3120543      0.8261925
C       3.7048264     -0.9222943      1.8818335
C       3.4325360      1.8179444     -0.5930363
N       3.7530382     -0.0211360      0.7593093
O       3.2045613      1.9294431      1.8467342
O       4.7057183     -1.4754808     -0.7710250
H       4.4506939      0.8660294     -2.3734854
H       4.1070568     -1.8847941      1.5419279
H       3.6187777      2.8858101     -0.7306581
H       2.6651031     -1.0537556      2.2164731
          85

O       0.3846942      2.1170674      1.1632304
C       0.9594361      2.5593123      0.1974264
O       1.2237368      3.8626296      0.0549265
C       0.9591679      4.6787675      1.1974378
C       1.4051093      6.0850332      0.8761408
C       1.5697581      1.7750362     -0.9079468
N       1.2621522      0.4244604     -0.9567328
C       1.7734519     -0.1790491     -1.9946016
C       1.8461332     -1.6350764     -2.1590888
C       1.8038737     -2.5142131     -1.0673218
C       1.8313194     -3.8917261     -1.2719030
C       1.9355105     -4.4116562     -2.5634120
C       2.0296123     -3.5424515     -3.6531324
C       1.9908730     -2.1658478     -3.4489480
H      -0.1149617      4.6322993      1.4320992
H       1.5062240      4.2535011      2.0515641
H       1.2129292      6.7434584      1.7336642
H       0.8590399      6.4758516      0.0063326
H       2.4805491      6.1074523      0.6530270
H       0.6718012     -0.2758669      0.3337700
H       1.5504613      2.3208372     -1.8650079
H       2.0089771      0.4071327     -2.8942033
H       1.7610519     -2.1078330     -0.0572821
H       1.7843455     -4.5654157     -0.4141727
H       1.9592013     -5.4914646     -2.7205602
H       2.1295117     -3.9409764     -4.6643814
H       2.0474726     -1.4849402     -4.3019827
H      -4.2109486      1.9183105      4.1858299
C      -3.5108157      1.6578745      3.3982850
H      -4.4281588      2.0817776      1.4087425
H      -1.6909349      1.8082337      5.5681540
C      -3.6161293      1.7419419      2.0444770
H      -0.7098615      0.4733326      4.8903800
C      -1.7231908      0.8725470      4.9990907
N      -2.2634907      1.1324622      3.6696573
H      -6.0819543     -2.4891108     -0.9636859
H      -5.9781112     -4.6307239      0.3215065
C      -5.1796472     -2.7408765     -0.4038207
C      -5.1228457     -3.9536481      0.3244437
N      -2.4289896      1.2654221      1.5204417
H      -2.3560490      0.1403845      5.5129526
C      -1.6267296      0.9051933      2.5253949
C      -4.1082665     -1.8767799     -0.4138762
C      -3.9874635     -4.2700401      1.0336771
H      -2.3698642      3.3345663     -0.0817093
H      -4.1666861     -0.9464528     -0.9815000
H      -3.9286471     -5.2007807      1.6023601
C      -2.1281852      1.1872090      0.1191708
C      -2.1692373      2.4022337     -0.6114365
C      -2.9184466     -2.1778833      0.3084658
C      -2.8680525     -3.3966902      1.0459087
H      -0.6092278      0.5322523      2.3974146
C      -1.7923263     -1.2913074      0.3218518
C      -1.6904177     -3.7028003      1.7867634
C      -1.8459791     -0.0273066     -0.4674312
C      -1.9249291      2.3880189     -1.9572739
H      -1.6490477     -4.6384675      2.3484855
H      -1.9345166      3.3174998     -2.5292684
C      -0.6281129     -2.8434598      1.7960264
C      -0.6593423     -1.6198670      1.0587248
C      -1.6330647     -0.0538118     -1.8873034
C      -1.6611250      1.1614925     -2.6304801
O       0.4094070     -0.8287854      1.1799973
H       0.2811955     -3.0648039      2.3572874
C      -1.3860045     -1.2705982     -2.5769911
C      -1.4232798      1.1271330     -4.0299718
H      -1.3381651     -2.2028224     -2.0120629
H      -1.4349953      2.0665482     -4.5863501
C      -1.1811564     -1.2763796     -3.9369976
C      -1.1913148     -0.0670137     -4.6717884
H      -0.9839138     -2.2193261     -4.4487491
H      -1.0134512     -0.0855053     -5.7481161
H       4.3164105     -0.5416996      2.7156393
C       4.2393671     -0.3646078     -0.5469963
C       4.0520441      0.7902041     -1.3664777
C       3.4427045      1.3106380      0.8270793
C       3.7089638     -0.9205115      1.8804862
C       3.4055542      1.8160323     -0.5957691
N       3.7494993     -0.0185783      0.7582936
O       3.2006292      1.9300959      1.8471680
O       4.7081764     -1.4738652     -0.7698581
H       4.4412901      0.8649738     -2.3777657
H       4.1126426     -1.8814658      1.5380065
H       3.6237813      2.8810408     -0.7215571
H       2.6708798     -1.0548964      2.2194304
          85

O       0.3836629      2.1163176      1.1552675
C       0.9716143      2.5610078      0.1999687
O       1.2250104      3.8642320      0.0552479
C       0.9572927      4.6804793      1.1975434
C       1.4047502      6.0859049      0.8760203
C       1.6109282      1.7762492     -0.8994523
N       1.2668093      0.4236679     -0.9521852
C       1.7736705     -0.1790069     -1.9910697
C       1.8441475     -1.6357113     -2.1589956
C       1.8031664     -2.5142798     -1.0671366
C       1.8314892     -3.8918316     -1.2716656
C       1.9358313     -4.4111336     -2.5633448
C       2.0295738     -3.5420838     -3.6533001
C       1.9896839     -2.1654284     -3.4490529
H      -0.1171442      4.6337201      1.4300785
H       1.5035690      4.2543373      2.0517565
H       1.2140873      6.7445709      1.7336510
H       0.8585582      6.4773291      0.0065973
H       2.4800441      6.1065221      0.6521831
H       0.6742442     -0.2749129      0.3310745
H       1.5567851      2.3200911     -1.8562805
H       2.0120487      0.4070096     -2.8902326
H       1.7610146     -2.1073082     -0.0573180
H       1.7854093     -4.5657708     -0.4141284
H       1.9603476     -5.4909207     -2.7206079
H       2.1303910     -3.9407433     -4.6643667
H       2.0468173     -1.4842669     -4.3018472
H      -4.2105492      1.9184660      4.1862913
C      -3.5106912      1.6577961      3.3985755
H      -4.4283886      2.0820254      1.4092571
H      -1.6905185      1.8079268      5.5679641
C      -3.6163134      1.7419126      2.0447869
H      -0.7097623      0.4727341      4.8902539
C      -1.7230003      0.8721528      4.9990635
N      -2.2634907      1.1320076      3.6696613
H      -6.0822220     -2.4894561     -0.9639457
H      -5.9784094     -4.6309677      0.3214541
C      -5.1799538     -2.7411708     -0.4039922
C      -5.1231627     -3.9538677      0.3243862
N      -2.4294815      1.2650013      1.5204484
H      -2.3559279      0.1401474      5.5130819
C      -1.6271101      0.9044092      2.5252169
C      -4.1085946     -1.8770689     -0.4139832
C      -3.9878113     -4.2701747      1.0337553
H      -2.3702871      3.3341977     -0.0816449
H      -4.1670555     -0.9467499     -0.9816125
H      -3.9290710     -5.2008725      1.6025223
C      -2.1291550      1.1867121      0.1190503
C      -2.1696162      2.4018923     -0.6114132
C      -2.9188006     -2.1781348      0.3084404
C      -2.8683764     -3.3968518      1.0459832
H      -0.6099997      0.5302725      2.3969261
C      -1.7927734     -1.2915594      0.3217400
C      -1.6905957     -3.7026715      1.7867995
C      -1.8469616     -0.0277163     -0.4675709
C      -1.9252276      2.3878806     -1.9572107
H      -1.6491188     -4.6382317      2.3487099
H      -1.9347642      3.3174247     -2.5291017
C      -0.6282779     -2.8432733      1.7958554
C      -0.6592926     -1.6195730      1.0583487
C      -1.6339559     -0.0540208     -1.8874094
C      -1.6616085      1.1613611     -2.6305085
O       0.4089935     -0.8282234      1.1788942
H       0.2810132     -3.0645997      2.3571744
C      -1.3869124     -1.2707431     -2.5771849
C      -1.4234047      1.1271764     -4.0299504
H      -1.3396301     -2.2030681     -2.0123792
H      -1.4348917      2.0666553     -4.5862205
C      -1.1812901     -1.2763138     -3.9370942
C      -1.1910752     -0.0668852     -4.6717914
H      -0.9838736     -2.2192028     -4.4488938
H      -1.0126885     -0.0852853     -5.7480300
H       4.3228357     -0.5396079      2.7127561
C       4.2397793     -0.3619285     -0.5528278
C       4.0432112      0.7847289     -1.3703389
C       3.4362357      1.3079174      0.8285510
C       3.7134965     -0.9188951      1.8791446
C       3.3699994      1.8120982     -0.5979277
N       3.7476748     -0.0165207      0.7576151
O       3.1972213      1.9307158      1.8479723
O       4.7115341     -1.4732544     -0.7684708
H       4.4293184      0.8648578     -2.3823560
H       4.1181061     -1.8784496      1.5338639
H       3.6210486      2.8716917     -0.7124603
H       2.6767799     -1.0555771      2.2215981
          85

O       0.3829005      2.1158915      1.1519865
C       0.9757740      2.5616612      0.2008779
O       1.2252402      3.8647384      0.0553771
C       0.9564984      4.6810541      1.1976774
C       1.4046035      6.0861316      0.8759985
C       1.6274058      1.7764237     -0.8960897
N       1.2679285      0.4227756     -0.9505024
C       1.7739309     -0.1790532     -1.9896185
C       1.8435772     -1.6360370     -2.1590374
C       1.8029546     -2.5142859     -1.0671114
C       1.8315158     -3.8918570     -1.2715846
C       1.9359008     -4.4109220     -2.5633247
C       2.0295044     -3.5419828     -3.6534022
C       1.9892882     -2.1652954     -3.4491497
H      -0.1180558      4.6342601      1.4294092
H       1.5024352      4.2543381      2.0518331
H       1.2145996      6.7449352      1.7336544
H       0.8583299      6.4777851      0.0067418
H       2.4798291      6.1060105      0.6518185
H       0.6752540     -0.2747347      0.3296740
H       1.5564056      2.3193059     -1.8534214
H       2.0130336      0.4069827     -2.8886454
H       1.7610539     -2.1070188     -0.0574065
H       1.7857182     -4.5658834     -0.4141214
H       1.9606856     -5.4907056     -2.7206117
H       2.1306056     -3.9407315     -4.6643883
H       2.0466548     -1.4840382     -4.3018499
H      -4.2105199      1.9185267      4.1865570
C      -3.5106401      1.6577509      3.3986591
H      -4.4285807      2.0821250      1.4093441
H      -1.6902264      1.8078579      5.5678436
C      -3.6163644      1.7418847      2.0449019
H      -0.7097983      0.4723664      4.8902258
C      -1.7229402      0.8720214      4.9990589
N      -2.2634826      1.1318533      3.6696619
H      -6.0823201     -2.4895793     -0.9640453
H      -5.9785179     -4.6310581      0.3214222
C      -5.1800664     -2.7412771     -0.4040595
C      -5.1232790     -3.9539483      0.3243557
N      -2.4296424      1.2648482      1.5204513
H      -2.3560000      0.1402217      5.5132060
C      -1.6272276      0.9041296      2.5251600
C      -4.1087173     -1.8771718     -0.4140177
C      -3.9879393     -4.2702239      1.0337772
H      -2.3704111      3.3340634     -0.0816257
H      -4.1671994     -0.9468472     -0.9816351
H      -3.9292278     -5.2009088      1.6025715
C      -2.1295333      1.1865111      0.1190003
C      -2.1697296      2.4017652     -0.6114110
C      -2.9189339     -2.1782266      0.3084345
C      -2.8684989     -3.3969146      1.0460091
H      -0.6102379      0.5295656      2.3967927
C      -1.7929472     -1.2916600      0.3217001
C      -1.6906642     -3.7026368      1.7868085
C      -1.8473521     -0.0278790     -0.4676220
C      -1.9253307      2.3878378     -1.9571967
H      -1.6491534     -4.6381623      2.3487822
H      -1.9348555      3.3174044     -2.5290516
C      -0.6283441     -2.8432207      1.7957844
C      -0.6592560     -1.6194687      1.0581988
C      -1.6342968     -0.0540990     -1.8874481
C      -1.6617749      1.1613089     -2.6305219
O       0.4088320     -0.8280481      1.1783970
H       0.2809482     -3.0645441      2.3571124
C      -1.3872609     -1.2707992     -2.5772493
C      -1.4234464      1.1271913     -4.0299463
H      -1.3402106     -2.2031610     -2.0124868
H      -1.4348614      2.0666913     -4.5861805
C      -1.1813374     -1.2762890     -3.9371209
C      -1.1909862     -0.0668410     -4.6717920
H      -0.9838675     -2.2191579     -4.4489416
H      -1.0124182     -0.0852150     -5.7479991
H       4.3249443     -0.5388502      2.7115872
C       4.2395021     -0.3608116     -0.5554885
C       4.0382095      0.7821382     -1.3722655
C       3.4327174      1.3067574      0.8287764
C       3.7149174     -0.9181762      1.8784685
C       3.3531754      1.8102194     -0.5994304
N       3.7467592     -0.0156075      0.7571892
O       3.1960261      1.9311164      1.8480341
O       4.7126709     -1.4730030     -0.7680078
H       4.4238067      0.8648641     -2.3842633
H       4.1198130     -1.8772233      1.5321046
H       3.6194529      2.8675691     -0.7088782
H       2.6786766     -1.0556547      2.2221813
