          85

O       1.0193273     -2.5929126     -0.8049622
C       2.1998609     -2.6988435     -1.0500889
O       2.6820860     -3.5720803     -1.9259403
C       1.7278275     -4.2136445     -2.7797588
C       2.4832432     -5.1476658     -3.6935448
C       3.2932684     -1.8334792     -0.4735604
N       2.7864498     -0.9580278      0.5190960
C       3.6871775     -0.3721023      1.2154588
C       3.4208191      0.8363164      2.0136147
C       2.3229269      1.6564051      1.7152782
C       2.1308701      2.8458050      2.4115036
C       3.0260197      3.2277604      3.4141434
C       4.1284086      2.4237077      3.7062346
C       4.3302598      1.2394718      2.9990826
H       0.9890166     -4.7435118     -2.1616486
H       1.2062171     -3.4222315     -3.3390306
H       1.7860511     -5.6318397     -4.3899131
H       2.9962613     -5.9273784     -3.1140790
H       3.2309347     -4.5933374     -4.2769061
H       0.1740330     -0.7149484     -2.2019090
H       4.1431458     -2.4639822     -0.1580137
H       4.7212220     -0.7534964      1.2615822
H       1.6640716      1.3670082      0.8928870
H       1.3015439      3.5038241      2.1480139
H       2.8756259      4.1659417      3.9510780
H       4.8393411      2.7276136      4.4762488
H       5.2056727      0.6193600      3.2066049
H      -0.2042383     -1.4867161      4.6327089
C      -0.3455656     -1.0215027      3.6621701
H      -1.6914125      0.7449129      3.8702214
H       2.0992670     -2.4335324      2.8299109
C      -1.0686350      0.0687441      3.2928590
H       1.1525498     -3.0413526      1.4345849
C       1.0986355     -2.7013086      2.4716303
N       0.2330402     -1.5276183      2.5182374
H      -6.3656967     -0.9534891      2.0388107
H      -6.7273460     -3.2694681      1.1727983
C      -5.6535625     -1.3833559      1.3324472
C      -5.8598269     -2.6968216      0.8419366
N      -0.9166638      0.2014185      1.9248578
H       0.6602438     -3.4790254      3.1065409
C      -0.1123345     -0.7734584      1.4784952
C      -4.5662787     -0.6451908      0.9253881
C      -4.9668276     -3.2424774     -0.0505884
H      -0.7600142      2.7415037      2.5199985
H      -4.4174610      0.3671595      1.3065852
H      -5.1158238     -4.2532169     -0.4372710
C      -1.5096523      1.2444845      1.1417393
C      -1.3327165      2.5717264      1.6079781
C      -3.6234809     -1.1857870      0.0049980
C      -3.8327896     -2.5073642     -0.4895713
H       0.2596395     -0.9103179      0.4598565
C      -2.4810137     -0.4537876     -0.4349419
C      -2.8934438     -3.0533241     -1.4105709
C      -2.2444270      0.9474091      0.0125449
C      -1.8746642      3.6158281      0.9079186
H      -3.0566296     -4.0648950     -1.7883111
H      -1.7396570      4.6414763      1.2555776
C      -1.7978782     -2.3386952     -1.8180451
C      -1.5863884     -1.0193329     -1.3287313
C      -2.8036509      2.0376713     -0.7322641
C      -2.6135044      3.3775845     -0.2832784
O      -0.5408079     -0.2690004     -1.6882520
H      -1.0658956     -2.7646652     -2.5045613
C      -3.5560615      1.8152323     -1.9193524
C      -3.1737624      4.4491581     -1.0308111
H      -3.7035185      0.7924611     -2.2687786
H      -3.0193331      5.4704403     -0.6770885
C      -4.0862829      2.8716666     -2.6211371
C      -3.8938523      4.2030565     -2.1745522
H      -4.6578146      2.6856307     -3.5315724
H      -4.3196252      5.0312039     -2.7429218
H       1.2777743      2.0710101     -2.9545175
C       3.9896093      1.3799480     -1.1729973
C       4.7454897      0.2054332     -1.2300168
C       2.6541599     -0.2061923     -2.2204113
C       1.6096040      2.0092615     -1.9077823
C       3.8932011     -0.9056091     -1.6919902
N       2.6766515      1.0508987     -1.7663737
O       1.7591947     -0.7442382     -2.8845375
O       4.1845233      2.5295529     -0.7771620
H       5.7674508      0.1305595     -0.8687939
H       2.0074425      2.9775310     -1.5803598
H       4.2955424     -1.6180055     -2.4206836
H       0.7403299      1.7303748     -1.2931283
          85

O       1.0178667     -2.5890265     -0.8073076
C       2.1988474     -2.6977602     -1.0494809
O       2.6810971     -3.5733242     -1.9231162
C       1.7276524     -4.2124501     -2.7797256
C       2.4839176     -5.1465431     -3.6927536
C       3.2926090     -1.8339324     -0.4722309
N       2.7875535     -0.9580204      0.5199314
C       3.6891956     -0.3712212      1.2146714
C       3.4227131      0.8371093      2.0127605
C       2.3238440      1.6561316      1.7150697
C       2.1307098      2.8451184      2.4116300
C       3.0256647      3.2276903      3.4142009
C       4.1290688      2.4247839      3.7056058
C       4.3321108      1.2410523      2.9979355
H       0.9866255     -4.7419024     -2.1638794
H       1.2085499     -3.4196447     -3.3393580
H       1.7878371     -5.6288358     -4.3915276
H       2.9943275     -5.9277119     -3.1129491
H       3.2339186     -4.5925652     -4.2734760
H       0.1729650     -0.7172222     -2.2021558
H       4.1434857     -2.4636074     -0.1594514
H       4.7232846     -0.7524899      1.2601724
H       1.6649785      1.3661459      0.8929338
H       1.3006267      3.5023304      2.1485311
H       2.8743376      4.1654604      3.9515901
H       4.8398531      2.7291874      4.4755642
H       5.2082570      0.6218344      3.2050362
H      -0.2035633     -1.4867715      4.6323888
C      -0.3451522     -1.0215436      3.6618950
H      -1.6907520      0.7450093      3.8704031
H       2.0995548     -2.4336553      2.8274672
C      -1.0682296      0.0687892      3.2928261
H       1.1510343     -3.0419216      1.4335958
C       1.0984449     -2.7014870      2.4705900
N       0.2329987     -1.5277223      2.5177572
H      -6.3656897     -0.9534367      2.0391673
H      -6.7275306     -3.2694542      1.1733261
C      -5.6536723     -1.3833545      1.3327166
C      -5.8600560     -2.6968309      0.8423085
N      -0.9167092      0.2014229      1.9247624
H       0.6607394     -3.4789486      3.1062798
C      -0.1125767     -0.7734843      1.4781560
C      -4.5664232     -0.6452012      0.9254804
C      -4.9672005     -3.2424948     -0.0503438
H      -0.7602587      2.7413896      2.5200362
H      -4.4175749      0.3671544      1.3066540
H      -5.1162372     -4.2532332     -0.4370118
C      -1.5098021      1.2444343      1.1416847
C      -1.3328982      2.5716617      1.6079718
C      -3.6237340     -1.1857977      0.0049732
C      -3.8332442     -2.5073829     -0.4895060
H       0.2591294     -0.9103948      0.4594074
C      -2.4811969     -0.4538542     -0.4351414
C      -2.8941996     -3.0534703     -1.4107148
C      -2.2445087      0.9473521      0.0124216
C      -1.8747561      3.6157972      0.9079071
H      -3.0575873     -4.0650173     -1.7884272
H      -1.7397178      4.6414356      1.2555822
C      -1.7987191     -2.3389275     -1.8184322
C      -1.5869205     -1.0196092     -1.3291566
C      -2.8037525      2.0376733     -0.7323158
C      -2.6135664      3.3775827     -0.2833072
O      -0.5411143     -0.2697455     -1.6893379
H      -1.0669811     -2.7648868     -2.5052165
C      -3.5562212      1.8153067     -1.9193801
C      -3.1737561      4.4492015     -1.0308244
H      -3.7037627      0.7925546     -2.2688242
H      -3.0192624      5.4704669     -0.6770821
C      -4.0863868      2.8717832     -2.6211446
C      -3.8938581      4.2031600     -2.1745686
H      -4.6579514      2.6857847     -3.5315669
H      -4.3195741      5.0313374     -2.7429368
H       1.2728186      2.0661045     -2.9505978
C       3.9885237      1.3795448     -1.1717303
C       4.7460663      0.2055510     -1.2297070
C       2.6559671     -0.2070128     -2.2216060
C       1.6077030      2.0063861     -1.9047415
C       3.8951292     -0.9052689     -1.6926711
N       2.6763994      1.0496064     -1.7651723
O       1.7622564     -0.7447064     -2.8873797
O       4.1824702      2.5287242     -0.7745099
H       5.7679032      0.1312689     -0.8678199
H       2.0049509      2.9756756     -1.5796347
H       4.2976209     -1.6209176     -2.4172291
H       0.7404512      1.7271891     -1.2873661
          85

O       1.0147988     -2.5803649     -0.8127815
C       2.1963778     -2.6957170     -1.0485985
O       2.6783682     -3.5770852     -1.9162103
C       1.7269749     -4.2099355     -2.7798093
C       2.4852969     -5.1439390     -3.6912091
C       3.2923617     -1.8337900     -0.4713634
N       2.7898508     -0.9576206      0.5212043
C       3.6932976     -0.3698106      1.2128629
C       3.4267591      0.8386299      2.0107860
C       2.3259200      1.6554175      1.7143542
C       2.1304695      2.8435331      2.4116476
C       3.0249694      3.2273348      3.4141287
C       4.1305339      2.4268828      3.7040567
C       4.3361010      1.2442219      2.9952353
H       0.9805340     -4.7384688     -2.1697333
H       1.2142674     -3.4133771     -3.3399510
H       1.7918600     -5.6218298     -4.3955875
H       2.9896835     -5.9285036     -3.1107333
H       3.2405750     -4.5906397     -4.2656834
H       0.1723639     -0.7219862     -2.2008226
H       4.1412045     -2.4693601     -0.1553306
H       4.7273747     -0.7510259      1.2573602
H       1.6670192      1.3641351      0.8928132
H       1.2987948      3.4990355      2.1493773
H       2.8716248      4.1641815      3.9525609
H       4.8409977      2.7323119      4.4739040
H       5.2138136      0.6269202      3.2014369
H      -0.2019713     -1.4868212      4.6316981
C      -0.3441830     -1.0215963      3.6612944
H      -1.6892327      0.7452618      3.8708068
H       2.1002036     -2.4339302      2.8220889
C      -1.0672963      0.0689121      3.2927508
H       1.1476859     -3.0433824      1.4315692
C       1.0980353     -2.7018763      2.4683558
N       0.2329186     -1.5279519      2.5166993
H      -6.3656382     -0.9534446      2.0400031
H      -6.7278458     -3.2695465      1.1745218
C      -5.6538903     -1.3834335      1.3333257
C      -5.8605042     -2.6969389      0.8431317
N      -0.9168300      0.2014192      1.9245442
H       0.6618853     -3.4787238      3.1058426
C      -0.1131476     -0.7735611      1.4774111
C      -4.5667690     -0.6452528      0.9256618
C      -4.9679900     -3.2425784     -0.0498411
H      -0.7607904      2.7411377      2.5201029
H      -4.4178834      0.3671156      1.3067896
H      -5.1170916     -4.2533120     -0.4364863
C      -1.5101646      1.2443196      1.1415632
C      -1.3333098      2.5715109      1.6079551
C      -3.6243245     -1.1858124      0.0048585
C      -3.8342485     -2.5074152     -0.4894257
H       0.2580186     -0.9104648      0.4584531
C      -2.4816023     -0.4539923     -0.4356170
C      -2.8958870     -3.0537518     -1.4111175
C      -2.2447265      0.9472357      0.0121525
C      -1.8749722      3.6157218      0.9078808
H      -3.0597278     -4.0652196     -1.7888262
H      -1.7398416      4.6413371      1.2555835
C      -1.8005771     -2.3393885     -1.8193576
C      -1.5880375     -1.0202330     -1.3300627
C      -2.8040276      2.0376814     -0.7324194
C      -2.6137344      3.3775806     -0.2833617
O      -0.5417889     -0.2712178     -1.6918071
H      -1.0694544     -2.7654096     -2.5067755
C      -3.5566220      1.8154768     -1.9194322
C      -3.1737469      4.4493053     -1.0308540
H      -3.7043642      0.7927741     -2.2689321
H      -3.0190889      5.4705326     -0.6770778
C      -4.0866372      2.8720538     -2.6211603
C      -3.8938678      4.2034001     -2.1746104
H      -4.6582630      2.6861436     -3.5315610
H      -4.3194311      5.0316470     -2.7429892
H       1.2614962      2.0548336     -2.9410786
C       3.9867726      1.3784476     -1.1684434
C       4.7476593      0.2066311     -1.2295618
C       2.6598927     -0.2083951     -2.2240728
C       1.6033874      1.9998086     -1.8972953
C       3.8984839     -0.9059127     -1.6928377
N       2.6757412      1.0465296     -1.7620679
O       1.7689504     -0.7454605     -2.8935659
O       4.1777647      2.5271136     -0.7681601
H       5.7699333      0.1348804     -0.8693995
H       1.9994126      2.9713578     -1.5775214
H       4.3065037     -1.6178908     -2.4266495
H       0.7407132      1.7200931     -1.2737323
          85

O       1.0106522     -2.5730630     -0.8183577
C       2.1933253     -2.6937997     -1.0474905
O       2.6753007     -3.5812790     -1.9089320
C       1.7262908     -4.2073111     -2.7800086
C       2.4867362     -5.1412338     -3.6896388
C       3.2912886     -1.8347779     -0.4700598
N       2.7922693     -0.9578798      0.5224818
C       3.6974415     -0.3683967      1.2111049
C       3.4306175      0.8401005      2.0086531
C       2.3279478      1.6548930      1.7133574
C       2.1302513      2.8420875      2.4114852
C       3.0241450      3.2269163      3.4141036
C       4.1316603      2.4286957      3.7027169
C       4.3397445      1.2472251      2.9926199
H       0.9739609     -4.7348220     -2.1762526
H       1.2203679     -3.4068535     -3.3407647
H       1.7958608     -5.6153937     -4.3990189
H       2.9856880     -5.9286641     -3.1083440
H       3.2467701     -4.5886436     -4.2584914
H       0.1717091     -0.7264358     -2.1990667
H       4.1399360     -2.4696617     -0.1590326
H       4.7318742     -0.7487605      1.2535810
H       1.6690886      1.3625142      0.8922664
H       1.2971067      3.4960187      2.1499850
H       2.8688026      4.1627957      3.9536471
H       4.8416572      2.7349068      4.4726932
H       5.2188627      0.6316599      3.1980419
H      -0.2004376     -1.4867513      4.6311431
C      -0.3432745     -1.0215823      3.6608038
H      -1.6877504      0.7456095      3.8712350
H       2.1007580     -2.4341107      2.8171357
C      -1.0664163      0.0690867      3.2927349
H       1.1445516     -3.0447111      1.4297351
C       1.0976174     -2.7022365      2.4663557
N       0.2327696     -1.5281803      2.5157787
H      -6.3657232     -0.9536415      2.0407696
H      -6.7281106     -3.2698121      1.1755412
C      -5.6541853     -1.3836283      1.3338820
C      -5.8609191     -2.6971581      0.8438412
N      -0.9170073      0.2014012      1.9243797
H       0.6629326     -3.4785026      3.1055370
C      -0.1138027     -0.7737105      1.4767590
C      -4.5672201     -0.6453445      0.9258618
C      -4.9686735     -3.2427049     -0.0494200
H      -0.7611608      2.7409265      2.5201257
H      -4.4183588      0.3670345      1.3069737
H      -5.1177664     -4.2534319     -0.4360723
C      -1.5105212      1.2442286      1.1415048
C      -1.3336268      2.5713926      1.6079382
C      -3.6249530     -1.1858096      0.0048067
C      -3.8351547     -2.5074251     -0.4893344
H       0.2567662     -0.9107695      0.4575837
C      -2.4820666     -0.4540495     -0.4359471
C      -2.8973654     -3.0539434     -1.4114339
C      -2.2450235      0.9471806      0.0120063
C      -1.8751214      3.6156750      0.9078617
H      -3.0615434     -4.0653444     -1.7891487
H      -1.7398594      4.6412695      1.2555714
C      -1.8022480     -2.3396827     -1.8201101
C      -1.5891525     -1.0207269     -1.3307322
C      -2.8043293      2.0377242     -0.7324542
C      -2.6138939      3.3776135     -0.2833786
O      -0.5423255     -0.2725271     -1.6938119
H      -1.0716085     -2.7657708     -2.5080253
C      -3.5570059      1.8156422     -1.9194340
C      -3.1737374      4.4494218     -1.0308738
H      -3.7049377      0.7929801     -2.2689673
H      -3.0189270      5.4706227     -0.6770916
C      -4.0868471      2.8723004     -2.6211676
C      -3.8938616      4.2036213     -2.1746484
H      -4.6585015      2.6864610     -3.5315636
H      -4.3192712      5.0319261     -2.7430558
H       1.2511468      2.0439268     -2.9320711
C       3.9849804      1.3781615     -1.1656565
C       4.7499116      0.2080598     -1.2307652
C       2.6642982     -0.2097216     -2.2263765
C       1.5992162      1.9932804     -1.8901632
C       3.9032692     -0.9049904     -1.6947662
N       2.6753016      1.0437556     -1.7587220
O       1.7763334     -0.7460634     -2.8998470
O       4.1731086      2.5258734     -0.7619014
H       5.7736244      0.1389865     -0.8734158
H       1.9935177      2.9670643     -1.5751044
H       4.3095736     -1.6227717     -2.4172446
H       0.7407954      1.7126616     -1.2611391
          85

O       1.0050301     -2.5679995     -0.8242286
C       2.1890394     -2.6930514     -1.0454421
O       2.6721143     -3.5851359     -1.9014978
C       1.7259140     -4.2044760     -2.7801608
C       2.4880504     -5.1385420     -3.6880972
C       3.2890445     -1.8367092     -0.4672424
N       2.7943868     -0.9593350      0.5251307
C       3.7015152     -0.3673495      1.2095971
C       3.4341134      0.8415796      2.0062203
C       2.3297227      1.6546299      1.7121827
C       2.1300439      2.8409205      2.4113289
C       3.0233347      3.2265954      3.4141494
C       4.1323939      2.4301232      3.7015972
C       4.3427297      1.2499086      2.9900719
H       0.9676759     -4.7308831     -2.1828445
H       1.2266832     -3.4001968     -3.3414554
H       1.7990744     -5.6098696     -4.4011985
H       2.9825403     -5.9281640     -3.1059500
H       3.2519010     -4.5868987     -4.2527374
H       0.1704171     -0.7307573     -2.1977397
H       4.1372850     -2.4743925     -0.1583839
H       4.7363999     -0.7465607      1.2499358
H       1.6706876      1.3614263      0.8916049
H       1.2955293      3.4934228      2.1506506
H       2.8662162      4.1615271      3.9548256
H       4.8418535      2.7366413      4.4719520
H       5.2229525      0.6357449      3.1949694
H      -0.1990511     -1.4865690      4.6307469
C      -0.3424757     -1.0215180      3.6604369
H      -1.6864006      0.7460115      3.8716083
H       2.1012499     -2.4341888      2.8127702
C      -1.0656391      0.0692801      3.2927384
H       1.1417853     -3.0457731      1.4281202
C       1.0972756     -2.7025042      2.4645974
N       0.2325897     -1.5284016      2.5150376
H      -6.3658838     -0.9539768      2.0414586
H      -6.7282993     -3.2701832      1.1763595
C      -5.6545052     -1.3838940      1.3343702
C      -5.8612651     -2.6974339      0.8444153
N      -0.9172047      0.2013515      1.9242438
H       0.6639330     -3.4783652      3.1051690
C      -0.1144888     -0.7739384      1.4762260
C      -4.5677152     -0.6454524      0.9260573
C      -4.9692131     -3.2428431     -0.0490982
H      -0.7613741      2.7407475      2.5201060
H      -4.4189067      0.3669314      1.3071826
H      -5.1182444     -4.2535680     -0.4357702
C      -1.5108350      1.2441524      1.1414749
C      -1.3338391      2.5712927      1.6079127
C      -3.6255850     -1.1857804      0.0047855
C      -3.8359276     -2.5074096     -0.4892565
H       0.2553432     -0.9112257      0.4568108
C      -2.4825666     -0.4540407     -0.4361341
C      -2.8985622     -3.0540485     -1.4116675
C      -2.2453632      0.9471680      0.0119531
C      -1.8752183      3.6156416      0.9078555
H      -3.0629912     -4.0653927     -1.7894069
H      -1.7398164      4.6412152      1.2555706
C      -1.8036236     -2.3398466     -1.8206215
C      -1.5901328     -1.0210480     -1.3311360
C      -2.8046251      2.0377910     -0.7324389
C      -2.6140383      3.3776681     -0.2833676
O      -0.5427894     -0.2736026     -1.6952576
H      -1.0733174     -2.7658533     -2.5089363
C      -3.5573439      1.8157899     -1.9194042
C      -3.1737326      4.4495367     -1.0308891
H      -3.7054301      0.7931529     -2.2689397
H      -3.0187958      5.4707231     -0.6771228
C      -4.0870139      2.8725049     -2.6211740
C      -3.8938483      4.2038074     -2.1746850
H      -4.6586732      2.6867198     -3.5315771
H      -4.3191195      5.0321568     -2.7431297
H       1.2421937      2.0338935     -2.9241859
C       3.9832915      1.3785051     -1.1636970
C       4.7531423      0.2107632     -1.2342055
C       2.6698248     -0.2104135     -2.2293877
C       1.5952155      1.9873456     -1.8837877
C       3.9093732     -0.9035374     -1.6978941
N       2.6750750      1.0415254     -1.7554450
O       1.7841696     -0.7464172     -2.9052815
O       4.1687467      2.5250492     -0.7558686
H       5.7792141      0.1463654     -0.8830568
H       1.9874051      2.9633159     -1.5728640
H       4.3179314     -1.6229490     -2.4203310
H       0.7403533      1.7057344     -1.2503679
          85

O       0.9984558     -2.5653565     -0.8298697
C       2.1843485     -2.6940111     -1.0417928
O       2.6694778     -3.5878994     -1.8952340
C       1.7259346     -4.2018164     -2.7801656
C       2.4889676     -5.1363195     -3.6868170
C       3.2848011     -1.8415891     -0.4610232
N       2.7957997     -0.9621763      0.5285540
C       3.7048860     -0.3668483      1.2086964
C       3.4368723      0.8428583      2.0036658
C       2.3309649      1.6546483      1.7111338
C       2.1298626      2.8401679      2.4113217
C       3.0227364      3.2265243      3.4142468
C       4.1327245      2.4310369      3.7007867
C       4.3447039      1.2519438      2.9879358
H       0.9630215     -4.7273778     -2.1880502
H       1.2318244     -3.3946852     -3.3419040
H       1.8009159     -5.6058287     -4.4020175
H       2.9803836     -5.9273632     -3.1039804
H       3.2553775     -4.5858421     -4.2491315
H       0.1699459     -0.7345984     -2.1950840
H       4.1359391     -2.4777067     -0.1589419
H       4.7399151     -0.7457089      1.2479376
H       1.6713820      1.3609514      0.8912124
H       1.2941654      3.4914944      2.1514774
H       2.8643576      4.1606996      3.9558630
H       4.8416857      2.7373526      4.4716944
H       5.2255299      0.6386028      3.1927209
H      -0.1979965     -1.4863389      4.6305104
C      -0.3418810     -1.0214319      3.6601992
H      -1.6853735      0.7463772      3.8718534
H       2.1016527     -2.4341328      2.8094457
C      -1.0650593      0.0694499      3.2927344
H       1.1397746     -3.0463420      1.4267950
C       1.0970782     -2.7026520      2.4632218
N       0.2324318     -1.5285803      2.5145300
H      -6.3660439     -0.9543349      2.0419971
H      -6.7283951     -3.2705446      1.1769202
C      -5.6547724     -1.3841513      1.3347413
C      -5.8614961     -2.6976868      0.8448113
N      -0.9173680      0.2012852      1.9241287
H       0.6647807     -3.4783291      3.1047169
C      -0.1150622     -0.7741918      1.4758504
C      -4.5681390     -0.6455508      0.9262188
C      -4.9695642     -3.2429598     -0.0488925
H      -0.7614523      2.7406039      2.5200550
H      -4.4193778      0.3668310      1.3073730
H      -5.1185158     -4.2536867     -0.4355830
C      -1.5110580      1.2440881      1.1414578
C      -1.3339562      2.5712125      1.6078820
C      -3.6261222     -1.1857402      0.0047757
C      -3.8364830     -2.5073796     -0.4892118
H       0.2540441     -0.9118587      0.4562286
C      -2.4830119     -0.4539900     -0.4362071
C      -2.8993864     -3.0540842     -1.4118296
C      -2.2456682      0.9471843      0.0119596
C      -1.8752784      3.6156157      0.9078617
H      -3.0639669     -4.0653859     -1.7896024
H      -1.7397652      4.6411698      1.2555910
C      -1.8045895     -2.3399067     -1.8209023
C      -1.5908827     -1.0212419     -1.3312637
C      -2.8048654      2.0378599     -0.7324014
C      -2.6141510      3.3777252     -0.2833446
O      -0.5431785     -0.2743177     -1.6962072
H      -1.0744248     -2.7658123     -2.5094068
C      -3.5575977      1.8159013     -1.9193649
C      -3.1737329      4.4496291     -1.0309035
H      -3.7057923      0.7932772     -2.2688878
H      -3.0187093      5.4708103     -0.6771612
C      -4.0871307      2.8726482     -2.6211810
C      -3.8938359      4.2039399     -2.1747185
H      -4.6587836      2.6868953     -3.5315942
H      -4.3190038      5.0323182     -2.7431979
H       1.2357542      2.0260528     -2.9184268
C       3.9810669      1.3797633     -1.1627853
C       4.7569030      0.2141147     -1.2395232
C       2.6759496     -0.2104087     -2.2330113
C       1.5917921      1.9830482     -1.8789374
C       3.9182198     -0.8994220     -1.7050829
N       2.6748999      1.0403439     -1.7523493
O       1.7911048     -0.7463887     -2.9089132
O       4.1653749      2.5244566     -0.7507669
H       5.7864250      0.1558349     -0.8973747
H       1.9818851      2.9609136     -1.5713300
H       4.3265849     -1.6260250     -2.4186572
H       0.7393256      1.7007685     -1.2426342
          85

O       0.9924954     -2.5640534     -0.8346119
C       2.1802016     -2.6962470     -1.0370957
O       2.6677684     -3.5894690     -1.8908321
C       1.7262504     -4.1996486     -2.7800656
C       2.4894903     -5.1347545     -3.6859398
C       3.2788463     -1.8490913     -0.4513268
N       2.7964363     -0.9653492      0.5318918
C       3.7073697     -0.3666849      1.2082318
C       3.4388250      0.8438192      2.0013978
C       2.3316777      1.6547753      1.7104239
C       2.1297284      2.8397581      2.4114365
C       3.0223721      3.2266466      3.4143584
C       4.1328073      2.4315585      3.7002612
C       4.3457930      1.2532812      2.9864220
H       0.9601342     -4.7245659     -2.1915018
H       1.2352553     -3.3908702     -3.3422247
H       1.8016661     -5.6032063     -4.4020601
H       2.9791062     -5.9265957     -3.1026653
H       3.2574049     -4.5854008     -4.2473288
H       0.1701092     -0.7378085     -2.1917557
H       4.1359210     -2.4808579     -0.1580702
H       4.7418573     -0.7468605      1.2485292
H       1.6713576      1.3608179      0.8911982
H       1.2931385      3.4902261      2.1522770
H       2.8632479      4.1603295      3.9566030
H       4.8414110      2.7374674      4.4716784
H       5.2268573      0.6403234      3.1913564
H      -0.1972866     -1.4861273      4.6303862
C      -0.3414860     -1.0213491      3.6600601
H      -1.6846920      0.7466547      3.8719752
H       2.1019618     -2.4339887      2.8070708
C      -1.0646757      0.0695753      3.2927170
H       1.1385111     -3.0465913      1.4258031
C       1.0969815     -2.7027089      2.4622256
N       0.2323227     -1.5286967      2.5142216
H      -6.3661652     -0.9546253      2.0423702
H      -6.7284299     -3.2708276      1.1772712
C      -5.6549605     -1.3843522      1.3349940
C      -5.8616310     -2.6978767      0.8450612
N      -0.9174709      0.2012218      1.9240318
H       0.6654496     -3.4783138      3.1043214
C      -0.1154556     -0.7744154      1.4756088
C      -4.5684408     -0.6456297      0.9263352
C      -4.9697643     -3.2430417     -0.0487730
H      -0.7614531      2.7404974      2.5199942
H      -4.4197097      0.3667472      1.3075188
H      -5.1186475     -4.2537729     -0.4354755
C      -1.5111971      1.2440342      1.1414483
C      -1.3340166      2.5711526      1.6078551
C      -3.6265135     -1.1857059      0.0047698
C      -3.8368379     -2.5073492     -0.4891963
H       0.2530517     -0.9125487      0.4558397
C      -2.4833518     -0.4539311     -0.4362242
C      -2.8998909     -3.0540775     -1.4119465
C      -2.2458973      0.9472059      0.0119875
C      -1.8753177      3.6155960      0.9078734
H      -3.0645444     -4.0653572     -1.7897372
H      -1.7397300      4.6411352      1.2556194
C      -1.8051882     -2.3399127     -1.8210347
C      -1.5913996     -1.0213420     -1.3312464
C      -2.8050341      2.0379144     -0.7323635
C      -2.6142297      3.3777706     -0.2833231
O      -0.5434909     -0.2747484     -1.6968005
H      -1.0750049     -2.7657365     -2.5095355
C      -3.5577687      1.8159770     -1.9193304
C      -3.1737351      4.4496931     -1.0309177
H      -3.7060339      0.7933576     -2.2688341
H      -3.0186611      5.4708735     -0.6771943
C      -4.0872072      2.8727392     -2.6211881
C      -3.8938273      4.2040258     -2.1747469
H      -4.6588552      2.6870022     -3.5316074
H      -4.3189289      5.0324216     -2.7432505
H       1.2318310      2.0206778     -2.9148344
C       3.9783329      1.3812418     -1.1624728
C       4.7602174      0.2171482     -1.2448802
C       2.6815811     -0.2098320     -2.2367118
C       1.5891947      1.9805117     -1.8757186
C       3.9286603     -0.8929080     -1.7159648
N       2.6747205      1.0400524     -1.7497871
O       1.7962029     -0.7460966     -2.9107109
O       4.1632822      2.5237974     -0.7471303
H       5.7931331      0.1652899     -0.9122694
H       1.9775025      2.9598685     -1.5706049
H       4.3370875     -1.6284190     -2.4200604
H       0.7380411      1.6979571     -1.2378641
          85

O       0.9875109     -2.5632394     -0.8384203
C       2.1768759     -2.6987910     -1.0324205
O       2.6666736     -3.5903712     -1.8877625
C       1.7266495     -4.1979151     -2.7799109
C       2.4897851     -5.1336472     -3.6853365
C       3.2719339     -1.8580600     -0.4396514
N       2.7967003     -0.9682617      0.5346341
C       3.7092846     -0.3665929      1.2080070
C       3.4402283      0.8444974      1.9995213
C       2.3320826      1.6549075      1.7099693
C       2.1296349      2.8395227      2.4115817
C       3.0221384      3.2268361      3.4144647
C       4.1328044      2.4318866      3.6998918
C       4.3464236      1.2541897      2.9853575
H       0.9584074     -4.7224590     -2.1937219
H       1.2376104     -3.3882169     -3.3424631
H       1.8019453     -5.6014624     -4.4018784
H       2.9782780     -5.9260021     -3.1017964
H       3.2586220     -4.5851657     -4.2463401
H       0.1704414     -0.7404604     -2.1885881
H       4.1371627     -2.4827944     -0.1572265
H       4.7428186     -0.7490424      1.2506166
H       1.6710403      1.3608091      0.8913676
H       1.2923813      3.4893653      2.1529389
H       2.8625547      4.1601924      3.9571294
H       4.8411681      2.7373970      4.4717117
H       5.2275652      0.6414063      3.1905199
H      -0.1967801     -1.4859453      4.6303185
C      -0.3412061     -1.0212765      3.6599743
H      -1.6842137      0.7468645      3.8720381
H       2.1022163     -2.4338282      2.8053011
C      -1.0644049      0.0696684      3.2926962
H       1.1375671     -3.0466694      1.4249994
C       1.0969340     -2.7027195      2.4614644
N       0.2322490     -1.5287725      2.5140260
H      -6.3662572     -0.9548571      2.0426423
H      -6.7284388     -3.2710510      1.1775127
C      -5.6550977     -1.3845108      1.3351766
C      -5.8617163     -2.6980233      0.8452342
N      -0.9175358      0.2011649      1.9239494
H       0.6659924     -3.4783341      3.1039454
C      -0.1157286     -0.7746055      1.4754350
C      -4.5686618     -0.6456951      0.9264227
C      -4.9698872     -3.2431024     -0.0486963
H      -0.7614225      2.7404161      2.5199342
H      -4.4199504      0.3666765      1.3076325
H      -5.1187149     -4.2538384     -0.4354069
C      -1.5112921      1.2439886      1.1414445
C      -1.3340540      2.5711076      1.6078344
C      -3.6268052     -1.1856798      0.0047672
C      -3.8370812     -2.5073239     -0.4891931
H       0.2522957     -0.9132652      0.4555485
C      -2.4836159     -0.4538768     -0.4362219
C      -2.9002235     -3.0540506     -1.4120426
C      -2.2460738      0.9472247      0.0120199
C      -1.8753476      3.6155811      0.9078860
H      -3.0649114     -4.0653223     -1.7898363
H      -1.7397080      4.6411097      1.2556459
C      -1.8055884     -2.3398953     -1.8211094
C      -1.5917711     -1.0213877     -1.3311894
C      -2.8051590      2.0379567     -0.7323302
C      -2.6142883      3.3778058     -0.2833055
O      -0.5437428     -0.2750392     -1.6972073
H      -1.0752854     -2.7656573     -2.5094838
C      -3.5578930      1.8160319     -1.9193024
C      -3.1737375      4.4497397     -1.0309315
H      -3.7062080      0.7934123     -2.2687825
H      -3.0186327      5.4709208     -0.6772214
C      -4.0872624      2.8728026     -2.6211952
C      -3.8938211      4.2040866     -2.1747715
H      -4.6589090      2.6870750     -3.5316175
H      -4.3188780      5.0324943     -2.7432919
H       1.2293920      2.0168366     -2.9125241
C       3.9753041      1.3827470     -1.1623967
C       4.7629141      0.2194359     -1.2495267
C       2.6863578     -0.2092490     -2.2400359
C       1.5872338      1.9789765     -1.8735117
C       3.9395441     -0.8848163     -1.7289498
N       2.6746039      1.0402884     -1.7476512
O       1.8000019     -0.7457069     -2.9115161
O       4.1620232      2.5230716     -0.7445546
H       5.7986472      0.1734184     -0.9250972
H       1.9739463      2.9595679     -1.5703494
H       4.3466759     -1.6311508     -2.4212560
H       0.7368180      1.6963216     -1.2348113
          85

O       0.9832452     -2.5626064     -0.8416253
C       2.1741202     -2.7012626     -1.0279267
O       2.6659296     -3.5909635     -1.8854631
C       1.7270446     -4.1964656     -2.7797310
C       2.4899606     -5.1327970     -3.6848819
C       3.2645298     -1.8677337     -0.4269753
N       2.7968378     -0.9708847      0.5368567
C       3.7108831     -0.3665038      1.2079224
C       3.4413117      0.8449881      1.9979291
C       2.3323291      1.6550259      1.7096578
C       2.1295670      2.8393678      2.4117234
C       3.0219701      3.2270393      3.4145620
C       4.1327774      2.4321219      3.6995926
C       4.3468377      1.2548714      2.9845447
H       0.9572226     -4.7207540     -2.1952975
H       1.2393159     -3.3862592     -3.3427009
H       1.8020395     -5.6001474     -4.4016718
H       2.9776671     -5.9255293     -3.1011737
H       3.2594702     -4.5850379     -4.2456986
H       0.1708764     -0.7429558     -2.1853909
H       4.1391129     -2.4838270     -0.1567619
H       4.7432812     -0.7516031      1.2533700
H       1.6706077      1.3608481      0.8916153
H       1.2917868      3.4887214      2.1534873
H       2.8620660      4.1601523      3.9575406
H       4.8409680      2.7372752      4.4717415
H       5.2279873      0.6421648      3.1899409
H      -0.1963698     -1.4857841      4.6302719
C      -0.3409808     -1.0212107      3.6599104
H      -1.6838338      0.7470370      3.8720763
H       2.1024402     -2.4336672      2.8038702
C      -1.0641882      0.0697446      3.2926744
H       1.1367578     -3.0465709      1.4242697
C       1.0969164     -2.7027190      2.4608375
N       0.2321931     -1.5288302      2.5138805
H      -6.3663335     -0.9550585      2.0428639
H      -6.7284348     -3.2712453      1.1777035
C      -5.6552085     -1.3846488      1.3353251
C      -5.8617770     -2.6981496      0.8453714
N      -0.9175828      0.2011131      1.9238749
H       0.6664570     -3.4783713      3.1035968
C      -0.1159406     -0.7747742      1.4752918
C      -4.5688413     -0.6457548      0.9264959
C      -4.9699736     -3.2431541     -0.0486394
H      -0.7613796      2.7403496      2.5198757
H      -4.4201458      0.3666123      1.3077288
H      -5.1187532     -4.2538949     -0.4353568
C      -1.5113679      1.2439485      1.1414443
C      -1.3340831      2.5710705      1.6078181
C      -3.6270465     -1.1856590      0.0047667
C      -3.8372701     -2.5073021     -0.4891954
H       0.2516661     -0.9139987      0.4553049
C      -2.4838439     -0.4538242     -0.4362127
C      -2.9004742     -3.0540134     -1.4121312
C      -2.2462242      0.9472423      0.0120534
C      -1.8753744      3.6155685      0.9078979
H      -3.0651786     -4.0652831     -1.7899222
H      -1.7396938      4.6410888      1.2556693
C      -1.8058941     -2.3398639     -1.8211633
C      -1.5920773     -1.0214027     -1.3311166
C      -2.8052635      2.0379925     -0.7323001
C      -2.6143379      3.3778354     -0.2832907
O      -0.5439649     -0.2752574     -1.6975278
H      -1.0754323     -2.7655699     -2.5093656
C      -3.5579960      1.8160765     -1.9192782
C      -3.1737395      4.4497776     -1.0309450
H      -3.7063514      0.7934549     -2.2687347
H      -3.0186115      5.4709598     -0.6772453
C      -4.0873080      2.8728532     -2.6212020
C      -3.8938158      4.2041355     -2.1747939
H      -4.6589548      2.6871323     -3.5316259
H      -4.3188372      5.0325530     -2.7433277
H       1.2277191      2.0138108     -2.9108771
C       3.9721604      1.3842522     -1.1624084
C       4.7652020      0.2211276     -1.2536304
C       2.6905235     -0.2087441     -2.2429504
C       1.5856469      1.9779338     -1.8718488
C       3.9504002     -0.8758448     -1.7428620
N       2.6745419      1.0407701     -1.7457831
O       1.8030946     -0.7453054     -2.9118982
O       4.1612128      2.5223106     -0.7425907
H       5.8031813      0.1803236     -0.9359411
H       1.9708846      2.9596046     -1.5703222
H       4.3557355     -1.6340027     -2.4223003
H       0.7357194      1.6952188     -1.2326267
          85

O       0.9794523     -2.5620526     -0.8444358
C       2.1717507     -2.7035778     -1.0236293
O       2.6653893     -3.5914120     -1.8836078
C       1.7274310     -4.1951927     -2.7795249
C       2.4900669     -5.1320858     -3.6845179
C       3.2568601     -1.8777984     -0.4137667
N       2.7969406     -0.9732880      0.5386879
C       3.7122952     -0.3664021      1.2079430
C       3.4421985      0.8453513      1.9965263
C       2.3324851      1.6551299      1.7094241
C       2.1295155      2.8392507      2.4118518
C       3.0218385      3.2272379      3.4146488
C       4.1327467      2.4323026      3.6993229
C       4.3471408      1.2554235      2.9838725
H       0.9562649     -4.7192564     -2.1965638
H       1.2406324     -3.3847132     -3.3429230
H       1.8020450     -5.5990563     -4.4014822
H       2.9771682     -5.9251306     -3.1007039
H       3.2601181     -4.5849473     -4.2452288
H       0.1713286     -0.7453739     -2.1821411
H       4.1415140     -2.4840385     -0.1568770
H       4.7434861     -0.7542632      1.2564253
H       1.6701229      1.3609091      0.8918929
H       1.2912924      3.4881992      2.1539549
H       2.8616883      4.1601508      3.9578862
H       4.8408029      2.7371321      4.4717526
H       5.2282654      0.6427404      3.1894937
H      -0.1960011     -1.4856328      4.6302325
C      -0.3407789     -1.0211475      3.6598548
H      -1.6835006      0.7471909      3.8721033
H       2.1026421     -2.4334965      2.8026234
C      -1.0639965      0.0698130      3.2926522
H       1.1360708     -3.0464194      1.4235908
C       1.0969112     -2.7027125      2.4602803
N       0.2321469     -1.5288770      2.5137571
H      -6.3664028     -0.9552487      2.0430621
H      -6.7284222     -3.2714308      1.1778730
C      -5.6553069     -1.3847800      1.3354580
C      -5.8618247     -2.6982700      0.8454931
N      -0.9176218      0.2010641      1.9238040
H       0.6668779     -3.4784062      3.1032767
C      -0.1161212     -0.7749330      1.4751608
C      -4.5690013     -0.6458141      0.9265634
C      -4.9700416     -3.2432037     -0.0485920
H      -0.7613309      2.7402895      2.5198173
H      -4.4203210      0.3665487      1.3078180
H      -5.1187760     -4.2539493     -0.4353157
C      -1.5114366      1.2439104      1.1414471
C      -1.3341103      2.5710375      1.6078043
C      -3.6272616     -1.1856428      0.0047689
C      -3.8374321     -2.5072827     -0.4892018
H       0.2511020     -0.9147594      0.4550821
C      -2.4840539     -0.4537719     -0.4362010
C      -2.9006843     -3.0539669     -1.4122195
C      -2.2463645      0.9472598      0.0120885
C      -1.8754012      3.6155570      0.9079093
H      -3.0653921     -4.0652380     -1.7900054
H      -1.7396845      4.6410705      1.2556906
C      -1.8061541     -2.3398188     -1.8212139
C      -1.5923573     -1.0213974     -1.3310445
C      -2.8053605      2.0380250     -0.7322709
C      -2.6143844      3.3778618     -0.2832773
O      -0.5441721     -0.2754295     -1.6978043
H      -1.0755112     -2.7654712     -2.5092189
C      -3.5580910      1.8161164     -1.9192556
C      -3.1737410      4.4498113     -1.0309589
H      -3.7064830      0.7934920     -2.2686876
H      -3.0185920      5.4709948     -0.6772688
C      -4.0873500      2.8728979     -2.6212091
C      -3.8938108      4.2041796     -2.1748158
H      -4.6589977      2.6871829     -3.5316339
H      -4.3188003      5.0326057     -2.7433622
H       1.2264660      2.0112409     -2.9095933
C       3.9689495      1.3857764     -1.1624536
C       4.7672333      0.2223925     -1.2573782
C       2.6942929     -0.2083492     -2.2455182
C       1.5842905      1.9771457     -1.8704964
C       3.9611540     -0.8663564     -1.7572509
N       2.6745365      1.0413823     -1.7440787
O       1.8057995     -0.7449076     -2.9120748
O       4.1606625      2.5215434     -0.7409934
H       5.8070217      0.1863325     -0.9452355
H       1.9681149      2.9598055     -1.5704154
H       4.3641635     -1.6369664     -2.4226886
H       0.7347391      1.6943616     -1.2309140
          85

O       0.9759747     -2.5615345     -0.8469731
C       2.1696432     -2.7057328     -1.0194879
O       2.6649774     -3.5917974     -1.8820200
C       1.7278062     -4.1940252     -2.7792977
C       2.4901245     -5.1314507     -3.6842159
C       3.2490319     -1.8881086     -0.4002303
N       2.7970469     -0.9755355      0.5402247
C       3.7135813     -0.3662930      1.2080580
C       3.4429525      0.8456203      1.9952487
C       2.3325814      1.6552213      1.7092300
C       2.1294756      2.8391503      2.4119615
C       3.0217317      3.2274213      3.4147229
C       4.1327208      2.4324416      3.6990580
C       4.3473836      1.2558913      2.9832760
H       0.9554616     -4.7179171     -2.1976328
H       1.2417105     -3.3834100     -3.3431271
H       1.8019964     -5.5980830     -4.4013234
H       2.9767228     -5.9247782     -3.1003393
H       3.2606490     -4.5848694     -4.2448547
H       0.1716742     -0.7477002     -2.1790796
H       4.1442469     -2.4834916     -0.1576700
H       4.7435467     -0.7569049      1.2596049
H       1.6696067      1.3609806      0.8921767
H       1.2908636      3.4877502      2.1543639
H       2.8613779      4.1601581      3.9581876
H       4.8406649      2.7369706      4.4717425
H       5.2284573      0.6431922      3.1891127
H      -0.1956421     -1.4854833      4.6301946
C      -0.3405827     -1.0210832      3.6598014
H      -1.6831843      0.7473369      3.8721267
H       2.1028264     -2.4333107      2.8014835
C      -1.0638130      0.0698785      3.2926299
H       1.1354526     -3.0462378      1.4229335
C       1.0969129     -2.7027053      2.4597576
N       0.2321077     -1.5289176      2.5136418
H      -6.3664699     -0.9554416      2.0432536
H      -6.7284015     -3.2716227      1.1780379
C      -5.6554009     -1.3849143      1.3355868
C      -5.8618653     -2.6983948      0.8456109
N      -0.9176578      0.2010157      1.9237335
H       0.6672771     -3.4784360      3.1029772
C      -0.1162872     -0.7750889      1.4750310
C      -4.5691558     -0.6458774      0.9266300
C      -4.9701004     -3.2432561     -0.0485485
H      -0.7612795      2.7402315      2.5197577
H      -4.4204914      0.3664812      1.3079071
H      -5.1187897     -4.2540068     -0.4352781
C      -1.5115057      1.2438726      1.1414527
C      -1.3341393      2.5710060      1.6077920
C      -3.6274667     -1.1856307      0.0047746
C      -3.8375826     -2.5072648     -0.4892124
H       0.2505613     -0.9155604      0.4548596
C      -2.4842612     -0.4537175     -0.4361855
C      -2.9008743     -3.0539081     -1.4123141
C      -2.2465062      0.9472777      0.0121269
C      -1.8754300      3.6155458      0.9079206
H      -3.0655766     -4.0651814     -1.7900976
H      -1.7396786      4.6410533      1.2557104
C      -1.8063945     -2.3397558     -1.8212683
C      -1.5926369     -1.0213717     -1.3309803
C      -2.8054585      2.0380561     -0.7322414
C      -2.6144315      3.3778870     -0.2832646
O      -0.5443723     -0.2755731     -1.6980507
H      -1.0755520     -2.7653567     -2.5090556
C      -3.5581860      1.8161547     -1.9192334
C      -3.1737420      4.4498436     -1.0309741
H      -3.7066154      0.7935272     -2.2686395
H      -3.0185715      5.4710284     -0.6772937
C      -4.0873918      2.8729412     -2.6212167
C      -3.8938054      4.2042224     -2.1748388
H      -4.6590411      2.6872319     -3.5316423
H      -4.3187631      5.0326572     -2.7433977
H       1.2254657      2.0089348     -2.9085246
C       3.9656762      1.3873399     -1.1625288
C       4.7691233      0.2233627     -1.2609143
C       2.6978161     -0.2080700     -2.2478175
C       1.5830862      1.9764985     -1.8693329
C       3.9717965     -0.8565563     -1.7718813
N       2.6745925      1.0420822     -1.7424730
O       1.8083025     -0.7445175     -2.9121364
O       4.1602793      2.5207953     -0.7396298
H       5.8103328      0.1916965     -0.9531951
H       1.9655143      2.9600964     -1.5705770
H       4.3720731     -1.6401261     -2.4224199
H       0.7338641      1.6936054     -1.2294755
          85

O       0.9727206     -2.5610397     -0.8493081
C       2.1677127     -2.7077396     -1.0154575
O       2.6646515     -3.5921644     -1.8805913
C       1.7281734     -4.1929201     -2.7790488
C       2.4901410     -5.1308533     -3.6839617
C       3.2411345     -1.8986006     -0.3864772
N       2.7971635     -0.9776678      0.5415383
C       3.7147634     -0.3661828      1.2082608
C       3.4436099      0.8458169      1.9940476
C       2.3326331      1.6552999      1.7090455
C       2.1294448      2.8390512      2.4120454
C       3.0216446      3.2275760      3.4147787
C       4.1327063      2.4325364      3.6987790
C       4.3475945      1.2562936      2.9827095
H       0.9547434     -4.7166767     -2.1985866
H       1.2426458     -3.3822408     -3.3432995
H       1.8018978     -5.5971550     -4.4012008
H       2.9762930     -5.9244603     -3.1000642
H       3.2611015     -4.5847898     -4.2445433
H       0.1711704     -0.7498709     -2.1772520
H       4.1470934     -2.4823017     -0.1590386
H       4.7435108     -0.7594823      1.2628214
H       1.6690656      1.3610560      0.8924470
H       1.2904808      3.4873444      2.1547264
H       2.8611159      4.1601475      3.9584586
H       4.8405559      2.7367830      4.4716973
H       5.2285975      0.6435453      3.1887498
H      -0.1952692     -1.4853286      4.6301551
C      -0.3403777     -1.0210154      3.6597465
H      -1.6828627      0.7474819      3.8721517
H       2.1030023     -2.4331134      2.8004058
C      -1.0636243      0.0699447      3.2926075
H       1.1348826     -3.0460332      1.4222795
C       1.0969208     -2.7026991      2.4592505
N       0.2320741     -1.5289552      2.5135247
H      -6.3665405     -0.9556529      2.0434531
H      -6.7283733     -3.2718344      1.1782119
C      -5.6554978     -1.3850627      1.3357211
C      -5.8619031     -2.6985338      0.8457352
N      -0.9176950      0.2009663      1.9236617
H       0.6676673     -3.4784614      3.1026901
C      -0.1164509     -0.7752468      1.4748922
C      -4.5693163     -0.6459487      0.9266999
C      -4.9701547     -3.2433156     -0.0485044
H      -0.7612279      2.7401739      2.5196962
H      -4.4206707      0.3664047      1.3080033
H      -5.1187949     -4.2540720     -0.4352404
C      -1.5115821      1.2438335      1.1414594
C      -1.3341730      2.5709746      1.6077807
C      -3.6276751     -1.1856207      0.0047803
C      -3.8377364     -2.5072479     -0.4892264
H       0.2500175     -0.9163935      0.4546145
C      -2.4844766     -0.4536625     -0.4361704
C      -2.9010592     -3.0538344     -1.4124209
C      -2.2466618      0.9472922      0.0121689
C      -1.8754633      3.6155346      0.9079327
H      -3.0657610     -4.0651061     -1.7902117
H      -1.7396766      4.6410366      1.2557293
C      -1.8066236     -2.3396711     -1.8213242
C      -1.5929140     -1.0213057     -1.3309253
C      -2.8055647      2.0380872     -0.7322087
C      -2.6144826      3.3779120     -0.2832518
O      -0.5445621     -0.2757066     -1.6982315
H      -1.0755821     -2.7651711     -2.5089289
C      -3.5582877      1.8161940     -1.9192098
C      -3.1737421      4.4498767     -1.0309916
H      -3.7067543      0.7935603     -2.2685816
H      -3.0185471      5.4710630     -0.6773225
C      -4.0874370      2.8729860     -2.6212258
C      -3.8937994      4.2042669     -2.1748642
H      -4.6590881      2.6872849     -3.5316526
H      -4.3187222      5.0327112     -2.7434367
H       1.2246277      2.0067775     -2.9075857
C       3.9623308      1.3889568     -1.1626115
C       4.7709468      0.2241430     -1.2643043
C       2.7012007     -0.2079023     -2.2499125
C       1.5819888      1.9759274     -1.8682869
C       3.9823508     -0.8465731     -1.7866485
N       2.6747236      1.0428481     -1.7409258
O       1.8107351     -0.7441382     -2.9121076
O       4.1600141      2.5200965     -0.7384368
H       5.8132565      0.1965974     -0.9600162
H       1.9630144      2.9604372     -1.5707807
H       4.3795071     -1.6434174     -2.4214126
H       0.7330875      1.6928550     -1.2282025
          85

O       0.9696207     -2.5605424     -0.8514688
C       2.1659399     -2.7096455     -1.0115031
O       2.6643766     -3.5925286     -1.8792256
C       1.7285311     -4.1918509     -2.7787839
C       2.4901137     -5.1302628     -3.6837539
C       3.2332174     -1.9092211     -0.3725795
N       2.7972692     -0.9797187      0.5426830
C       3.7158433     -0.3660741      1.2085393
C       3.4441916      0.8459538      1.9928767
C       2.3326486      1.6553625      1.7088369
C       2.1294217      2.8389362      2.4120877
C       3.0215790      3.2276747      3.4148005
C       4.1327113      2.4325658      3.6984623
C       4.3477949      1.2566274      2.9821272
H       0.9540661     -4.7154923     -2.1994778
H       1.2435188     -3.3811279     -3.3434350
H       1.8017231     -5.5961991     -4.4011170
H       2.9758407     -5.9241767     -3.0998909
H       3.2614862     -4.5846933     -4.2442881
H       0.1716458     -0.7526030     -2.1734543
H       4.1500197     -2.4805793     -0.1609443
H       4.7433892     -0.7619774      1.2660313
H       1.6684969      1.3611353      0.8926795
H       1.2901343      3.4869601      2.1550449
H       2.8608933      4.1600802      3.9586995
H       4.8404826      2.7365386      4.4715975
H       5.2287077      0.6437949      3.1883479
H      -0.1948510     -1.4851626      4.6301038
C      -0.3401448     -1.0209408      3.6596807
H      -1.6825086      0.7476352      3.8721788
H       2.1031788     -2.4329096      2.7993456
C      -1.0634139      0.0700158      3.2925801
H       1.1343459     -3.0458290      1.4216226
C       1.0969360     -2.7026971      2.4587401
N       0.2320486     -1.5289951      2.5133954
H      -6.3666212     -0.9558989      2.0436710
H      -6.7283290     -3.2720825      1.1784042
C      -5.6556006     -1.3852361      1.3358712
C      -5.8619325     -2.6987004      0.8458719
N      -0.9177386      0.2009123      1.9235832
H       0.6680587     -3.4784812      3.1024073
C      -0.1166282     -0.7754128      1.4747490
C      -4.5694944     -0.6460339      0.9267823
C      -4.9702054     -3.2433931     -0.0484583
H      -0.7611801      2.7401166      2.5196338
H      -4.4208769      0.3663188      1.3081061
H      -5.1187948     -4.2541560     -0.4352030
C      -1.5116728      1.2437933      1.1414709
C      -1.3342156      2.5709406      1.6077718
C      -3.6279092     -1.1856095      0.0047837
C      -3.8379005     -2.5072338     -0.4892476
H       0.2494506     -0.9172594      0.4543734
C      -2.4847261     -0.4535997     -0.4361589
C      -2.9012662     -3.0537452     -1.4125536
C      -2.2468395      0.9473126      0.0122202
C      -1.8755052      3.6155199      0.9079451
H      -3.0659624     -4.0650197     -1.7903493
H      -1.7396792      4.6410166      1.2557470
C      -1.8068912     -2.3395686     -1.8214251
C      -1.5931755     -1.0212292     -1.3308638
C      -2.8056904      2.0381204     -0.7321726
C      -2.6145433      3.3779371     -0.2832390
O      -0.5448060     -0.2757376     -1.6984711
H      -1.0756437     -2.7649400     -2.5088305
C      -3.5584077      1.8162351     -1.9191860
C      -3.1737404      4.4499124     -1.0310128
H      -3.7069173      0.7935985     -2.2685294
H      -3.0185131      5.4711003     -0.6773576
C      -4.0874893      2.8730358     -2.6212359
C      -3.8937913      4.2043159     -2.1748934
H      -4.6591401      2.6873451     -3.5316658
H      -4.3186719      5.0327712     -2.7434832
H       1.2238633      2.0047086     -2.9067086
C       3.9589873      1.3906411     -1.1627096
C       4.7727604      0.2248225     -1.2675909
C       2.7045320     -0.2078247     -2.2518711
C       1.5809653      1.9753909     -1.8673129
C       3.9928302     -0.8364800     -1.8014459
N       2.6749169      1.0436386     -1.7394355
O       1.8131631     -0.7437725     -2.9120636
O       4.1598025      2.5194868     -0.7373604
H       5.8158828      0.2011203     -0.9658217
H       1.9606055      2.9607789     -1.5709857
H       4.3865712     -1.6467856     -2.4197497
H       0.7324022      1.6920833     -1.2270076
          85

O       0.9666309     -2.5600620     -0.8534013
C       2.1642617     -2.7114650     -1.0075511
O       2.6641492     -3.5929396     -1.8778484
C       1.7289048     -4.1907690     -2.7784853
C       2.4900145     -5.1296445     -3.6836191
C       3.2253252     -1.9199689     -0.3585204
N       2.7973216     -0.9816742      0.5437014
C       3.7168070     -0.3659822      1.2088763
C       3.4447070      0.8460358      1.9916661
C       2.3326228      1.6553929      1.7085336
C       2.1294049      2.8387699      2.4120495
C       3.0215486      3.2276503      3.4147527
C       4.1327555      2.4324699      3.6980618
C       4.3480038      1.2568590      2.9814506
H       0.9533940     -4.7143089     -2.2003616
H       1.2444075     -3.3799818     -3.3435165
H       1.8014185     -5.5951375     -4.4011018
H       2.9753072     -5.9239251     -3.0998643
H       3.2617999     -4.5845743     -4.2441098
H       0.1717966     -0.7544363     -2.1707603
H       4.1528211     -2.4784213     -0.1631617
H       4.7431680     -0.7644216      1.2692226
H       1.6679008      1.3611847      0.8928089
H       1.2898208      3.4865737      2.1553178
H       2.8607295      4.1598756      3.9589008
H       4.8404485      2.7361618      4.4714174
H       5.2287981      0.6438872      3.1878044
H      -0.1943283     -1.4849700      4.6300268
C      -0.3398523     -1.0208520      3.6595896
H      -1.6820761      0.7478116      3.8722180
H       2.1033639     -2.4326969      2.7982478
C      -1.0631542      0.0700984      3.2925472
H       1.1338338     -3.0456246      1.4209368
C       1.0969602     -2.7026991      2.4581976
N       0.2320301     -1.5290365      2.5132224
H      -6.3667246     -0.9562105      2.0439334
H      -6.7282605     -3.2724170      1.1786546
C      -5.6557300     -1.3854607      1.3360556
C      -5.8619637     -2.6989264      0.8460466
N      -0.9177906      0.2008483      1.9234878
H       0.6684629     -3.4784928      3.1021075
C      -0.1168317     -0.7756006      1.4745562
C      -4.5697169     -0.6461508      0.9268879
C      -4.9702685     -3.2435023     -0.0483976
H      -0.7611367      2.7400476      2.5195608
H      -4.4211389      0.3661984      1.3082394
H      -5.1187906     -4.2542705     -0.4351522
C      -1.5117942      1.2437435      1.1414880
C      -1.3342778      2.5708986      1.6077622
C      -3.6281761     -1.1856182      0.0048098
C      -3.8380894     -2.5072209     -0.4892819
H       0.2488207     -0.9182031      0.4540730
C      -2.4850242     -0.4535165     -0.4361308
C      -2.9015010     -3.0536046     -1.4127305
C      -2.2470765      0.9473403      0.0122949
C      -1.8755653      3.6155001      0.9079597
H      -3.0661401     -4.0648731     -1.7905594
H      -1.7396908      4.6409900      1.2557669
C      -1.8072009     -2.3393601     -1.8215722
C      -1.5935981     -1.0211051     -1.3308403
C      -2.8058530      2.0381565     -0.7321299
C      -2.6146197      3.3779642     -0.2832255
O      -0.5450583     -0.2757567     -1.6986545
H      -1.0757408     -2.7647231     -2.5087472
C      -3.5585586      1.8162838     -1.9191567
C      -3.1737351      4.4499535     -1.0310421
H      -3.7071348      0.7936463     -2.2684683
H      -3.0184615      5.4711416     -0.6774050
C      -4.0875560      2.8730967     -2.6212492
C      -3.8937806      4.2043750     -2.1749313
H      -4.6592080      2.6874179     -3.5316811
H      -4.3186066      5.0328447     -2.7435421
H       1.2231454      2.0026953     -2.9058225
C       3.9556667      1.3924827     -1.1628322
C       4.7746397      0.2255302     -1.2707722
C       2.7079273     -0.2078159     -2.2536294
C       1.5800109      1.9748383     -1.8663443
C       4.0033420     -0.8263630     -1.8161299
N       2.6752146      1.0444590     -1.7379961
O       1.8157603     -0.7434611     -2.9120799
O       4.1596054      2.5190209     -0.7364029
H       5.8183285      0.2054994     -0.9706898
H       1.9582199      2.9610951     -1.5711283
H       4.3934216     -1.6500812     -2.4173930
H       0.7318485      1.6911853     -1.2257856
          85

O       0.9638541     -2.5594654     -0.8548544
C       2.1627175     -2.7132838     -1.0032964
O       2.6639362     -3.5934576     -1.8762133
C       1.7293295     -4.1896042     -2.7781617
C       2.4897618     -5.1289551     -3.6836996
C       3.2176826     -1.9307142     -0.3441016
N       2.7970261     -0.9834186      0.5448376
C       3.7174516     -0.3658874      1.2093475
C       3.4451468      0.8461322      1.9902164
C       2.3324960      1.6553145      1.7078814
C       2.1293735      2.8383905      2.4117571
C       3.0216270      3.2271810      3.4144431
C       4.1329289      2.4319523      3.6974054
C       4.3483183      1.2567947      2.9804192
H       0.9526554     -4.7130512     -2.2013875
H       1.2454917     -3.3785761     -3.3434390
H       1.8007322     -5.5937435     -4.4012616
H       2.9745398     -5.9238222     -3.1002823
H       3.2619756     -4.5844729     -4.2442129
H       0.1704503     -0.7565364     -2.1695156
H       4.1552707     -2.4761809     -0.1642961
H       4.7425973     -0.7669099      1.2723572
H       1.6672411      1.3610342      0.8926035
H       1.2895221      3.4860846      2.1555217
H       2.8607231      4.1591656      3.9589506
H       4.8404813      2.7353372      4.4710457
H       5.2288968      0.6434921      3.1867307
H      -0.1935202     -1.4847112      4.6298864
C      -0.3393915     -1.0207320      3.6594368
H      -1.6814098      0.7480491      3.8723011
H       2.1035801     -2.4324747      2.7970130
C      -1.0627494      0.0702104      3.2925023
H       1.1333101     -3.0454821      1.4201768
C       1.0970082     -2.7027198      2.4575620
N       0.2320333     -1.5291001      2.5129425
H      -6.3668925     -0.9567073      2.0443406
H      -6.7281361     -3.2729527      1.1790611
C      -5.6559281     -1.3858191      1.3363471
C      -5.8619952     -2.6992954      0.8463298
N      -0.9178721      0.2007589      1.9233570
H       0.6689217     -3.4784860      3.1017824
C      -0.1171301     -0.7758427      1.4742672
C      -4.5700700     -0.6463412      0.9270505
C      -4.9703514     -3.2436997     -0.0482944
H      -0.7611259      2.7399546      2.5194748
H      -4.4215516      0.3660107      1.3084255
H      -5.1187860     -4.2544826     -0.4350512
C      -1.5119998      1.2436727      1.1415109
C      -1.3343918      2.5708319      1.6077514
C      -3.6285964     -1.1856440      0.0048389
C      -3.8383804     -2.5072282     -0.4893456
H       0.2479742     -0.9192390      0.4536237
C      -2.4855193     -0.4534026     -0.4360814
C      -2.9018433     -3.0533598     -1.4130385
C      -2.2474698      0.9473668      0.0124154
C      -1.8756764      3.6154601      0.9079809
H      -3.0664261     -4.0646012     -1.7909755
H      -1.7397429      4.6409416      1.2557947
C      -1.8076555     -2.3389882     -1.8218309
C      -1.5941186     -1.0207889     -1.3308506
C      -2.8061098      2.0381982     -0.7320719
C      -2.6147380      3.3779879     -0.2832147
O      -0.5454719     -0.2755733     -1.6987122
H      -1.0759979     -2.7640645     -2.5089255
C      -3.5587951      1.8163496     -1.9191252
C      -3.1737169      4.4500052     -1.0310910
H      -3.7074660      0.7937096     -2.2683868
H      -3.0183555      5.4711922     -0.6774842
C      -4.0876658      2.8731879     -2.6212709
C      -3.8937619      4.2044616     -2.1749884
H      -4.6593230      2.6875395     -3.5317069
H      -4.3184970      5.0329575     -2.7436306
H       1.2222781      2.0006870     -2.9046915
C       3.9524863      1.3946354     -1.1630326
C       4.7768304      0.2266717     -1.2738992
C       2.7117166     -0.2078886     -2.2553542
C       1.5791490      1.9741958     -1.8652196
C       4.0140148     -0.8164497     -1.8301374
N       2.6757323      1.0452988     -1.7366311
O       1.8190341     -0.7432284     -2.9122588
O       4.1593085      2.5190066     -0.7356028
H       5.8207497      0.2102733     -0.9743224
H       1.9559376      2.9613019     -1.5710642
H       4.4005702     -1.6530151     -2.4143879
H       0.7315427      1.6900297     -1.2242780
          85

O       0.9622211     -2.5585260     -0.8549152
C       2.1621513     -2.7151921     -0.9982800
O       2.6635956     -3.5941001     -1.8746547
C       1.7295224     -4.1889585     -2.7784750
C       2.4892942     -5.1288723     -3.6848427
C       3.2102096     -1.9404780     -0.3280822
N       2.7955695     -0.9832236      0.5461156
C       3.7175382     -0.3650281      1.2098539
C       3.4454310      0.8464769      1.9881560
C       2.3319300      1.6547120      1.7062842
C       2.1292168      2.8371918      2.4107060
C       3.0220814      3.2252678      3.4132203
C       4.1333964      2.4299891      3.6961138
C       4.3488014      1.2555946      2.9786262
H       0.9517463     -4.7124946     -2.2031361
H       1.2463882     -3.3776480     -3.3439607
H       1.7996231     -5.5928284     -4.4023998
H       2.9736536     -5.9244670     -3.1020373
H       3.2618125     -4.5849727     -4.2455434
H       0.1700375     -0.7577879     -2.1658494
H       4.1573206     -2.4723333     -0.1610328
H       4.7410166     -0.7695868      1.2756944
H       1.6664106      1.3600306      0.8913893
H       1.2892715      3.4851893      2.1554664
H       2.8613378      4.1570236      3.9581383
H       4.8406337      2.7330754      4.4701879
H       5.2288288      0.6413096      3.1842893
H      -0.1923526     -1.4844811      4.6295593
C      -0.3387002     -1.0206214      3.6591257
H      -1.6804107      0.7483219      3.8724547
H       2.1037902     -2.4322171      2.7960157
C      -1.0621240      0.0703429      3.2924268
H       1.1331762     -3.0452660      1.4193074
C       1.0971697     -2.7027263      2.4568056
N       0.2320913     -1.5291902      2.5124337
H      -6.3671374     -0.9573736      2.0449090
H      -6.7279572     -3.2736951      1.1796965
C      -5.6562048     -1.3863119      1.3367801
C      -5.8620248     -2.6998300      0.8467754
N      -0.9179542      0.2006649      1.9231656
H       0.6693553     -3.4785364      3.1011581
C      -0.1175175     -0.7761001      1.4738090
C      -4.5705836     -0.6466274      0.9272747
C      -4.9704880     -3.2440523     -0.0480934
H      -0.7611986      2.7397923      2.5193676
H      -4.4221243      0.3657509      1.3086045
H      -5.1188563     -4.2548568     -0.4348207
C      -1.5122868      1.2435583      1.1415040
C      -1.3345871      2.5707119      1.6077171
C      -3.6292376     -1.1857733      0.0048950
C      -3.8387807     -2.5073302     -0.4894473
H       0.2469167     -0.9202882      0.4529979
C      -2.4863369     -0.4532954     -0.4359830
C      -2.9023354     -3.0529895     -1.4135707
C      -2.2480439      0.9473584      0.0125746
C      -1.8759005      3.6153688      0.9080191
H      -3.0667840     -4.0641764     -1.7917163
H      -1.7399564      4.6408348      1.2558763
C      -1.8083575     -2.3382927     -1.8224232
C      -1.5950117     -1.0202743     -1.3308832
C      -2.8064339      2.0382054     -0.7320433
C      -2.6148938      3.3779694     -0.2832262
O      -0.5463547     -0.2746169     -1.6985183
H      -1.0765662     -2.7630500     -2.5095609
C      -3.5591225      1.8164205     -1.9191133
C      -3.1736632      4.4500466     -1.0311609
H      -3.7079648      0.7937969     -2.2683473
H      -3.0181578      5.4712191     -0.6775726
C      -4.0878453      2.8733148     -2.6212825
C      -3.8937192      4.2045788     -2.1750634
H      -4.6595549      2.6877196     -3.5316969
H      -4.3183195      5.0331195     -2.7437419
H       1.2209145      1.9998647     -2.9029573
C       3.9493391      1.3969537     -1.1639334
C       4.7794939      0.2285853     -1.2766037
C       2.7157306     -0.2084447     -2.2567318
C       1.5784357      1.9739425     -1.8637332
C       4.0249272     -0.8069614     -1.8415501
N       2.6761959      1.0459586     -1.7357231
O       1.8228091     -0.7428897     -2.9131600
O       4.1589012      2.5191461     -0.7353635
H       5.8236082      0.2168764     -0.9774049
H       1.9546358      2.9614840     -1.5702752
H       4.4079376     -1.6563589     -2.4077536
H       0.7316392      1.6894636     -1.2219457
          85

O       0.9634629     -2.5591979     -0.8548483
C       2.1642553     -2.7146265     -0.9933158
O       2.6605668     -3.5952087     -1.8744181
C       1.7270107     -4.1910002     -2.7819016
C       2.4892496     -5.1309955     -3.6880616
C       3.2117869     -1.9369218     -0.3109575
N       2.7928667     -0.9776928      0.5480082
C       3.7182872     -0.3637365      1.2097889
C       3.4451002      0.8448669      1.9858165
C       2.3310345      1.6529409      1.7042399
C       2.1294087      2.8350746      2.4093545
C       3.0228719      3.2228663      3.4116376
C       4.1334176      2.4265161      3.6936907
C       4.3481781      1.2528315      2.9757974
H       0.9491602     -4.7158004     -2.2077802
H       1.2441403     -3.3800950     -3.3480813
H       1.8012651     -5.5958907     -4.4066915
H       2.9739586     -5.9259228     -3.1045705
H       3.2620931     -4.5864489     -4.2476893
H       0.1703249     -0.7552262     -2.1635394
H       4.1623656     -2.4630395     -0.1491805
H       4.7397734     -0.7721389      1.2764198
H       1.6652608      1.3591970      0.8893830
H       1.2899511      3.4839147      2.1545826
H       2.8632020      4.1545362      3.9569718
H       4.8413006      2.7284199      4.4676065
H       5.2279445      0.6379399      3.1805465
H      -0.1914032     -1.4843607      4.6292222
C      -0.3381924     -1.0206202      3.6587999
H      -1.6794403      0.7486153      3.8726070
H       2.1038243     -2.4321152      2.7960644
C      -1.0615981      0.0704366      3.2923478
H       1.1336371     -3.0453536      1.4189155
C       1.0973196     -2.7028122      2.4564001
N       0.2321624     -1.5292946      2.5119417
H      -6.3672298     -0.9577760      2.0453181
H      -6.7278919     -3.2741538      1.1802080
C      -5.6563477     -1.3866376      1.3370862
C      -5.8620788     -2.7001894      0.8471375
N      -0.9180289      0.2006407      1.9230503
H       0.6697685     -3.4788122      3.1006352
C      -0.1176873     -0.7760396      1.4734753
C      -4.5709013     -0.6468310      0.9273439
C      -4.9706180     -3.2443073     -0.0478839
H      -0.7612431      2.7396443      2.5192612
H      -4.4224963      0.3655899      1.3085819
H      -5.1189725     -4.2551217     -0.4345937
C      -1.5124677      1.2434715      1.1414021
C      -1.3347507      2.5706016      1.6076730
C      -3.6296001     -1.1859104      0.0048990
C      -3.8390452     -2.5074737     -0.4894759
H       0.2462941     -0.9198544      0.4524906
C      -2.4868961     -0.4533730     -0.4359724
C      -2.9028110     -3.0528636     -1.4139805
C      -2.2483131      0.9472390      0.0125386
C      -1.8761294      3.6152750      0.9080748
H      -3.0671913     -4.0640689     -1.7921024
H      -1.7402563      4.6407166      1.2560329
C      -1.8090588     -2.3378633     -1.8231578
C      -1.5957116     -1.0200218     -1.3310612
C      -2.8065673      2.0381655     -0.7320885
C      -2.6149997      3.3779224     -0.2832503
O      -0.5475928     -0.2731403     -1.6977567
H      -1.0772194     -2.7624881     -2.5102978
C      -3.5593327      1.8164632     -1.9191095
C      -3.1736071      4.4500692     -1.0312039
H      -3.7083189      0.7938527     -2.2683221
H      -3.0179765      5.4712206     -0.6776075
C      -4.0879996      2.8734097     -2.6212421
C      -3.8936586      4.2046715     -2.1751181
H      -4.6598072      2.6878528     -3.5316023
H      -4.3181337      5.0332441     -2.7438435
H       1.2179831      2.0036349     -2.9011245
C       3.9495228      1.3965803     -1.1689057
C       4.7849292      0.2325239     -1.2768468
C       2.7160502     -0.2097735     -2.2580431
C       1.5772023      1.9750280     -1.8625721
C       4.0340369     -0.7976806     -1.8352082
N       2.6735165      1.0445325     -1.7365305
O       1.8213828     -0.7417399     -2.9165581
O       4.1592430      2.5148974     -0.7354859
H       5.8298106      0.2246891     -0.9812359
H       1.9571976      2.9611589     -1.5692469
H       4.4158657     -1.6524168     -2.3955485
H       0.7309137      1.6925185     -1.2192113
          85

O       0.9586659     -2.5615237     -0.8594290
C       2.1596334     -2.7170472     -0.9975113
O       2.6576679     -3.5974270     -1.8774917
C       1.7251203     -4.1938742     -2.7845207
C       2.4889365     -5.1328401     -3.6900800
C       3.2065666     -1.9418272     -0.3165934
N       2.7918633     -0.9809863      0.5438285
C       3.7168143     -0.3660264      1.2062085
C       3.4440805      0.8429383      1.9837001
C       2.3305580      1.6522365      1.7032113
C       2.1294112      2.8343792      2.4087280
C       3.0229214      3.2218059      3.4110526
C       4.1331627      2.4247255      3.6924309
C       4.3472359      1.2509242      2.9741229
H       0.9475512     -4.7194759     -2.2107130
H       1.2414386     -3.3836334     -3.3509996
H       1.8021169     -5.5987710     -4.4091337
H       2.9743543     -5.9270142     -3.1061588
H       3.2613847     -4.5871706     -4.2491683
H       0.1688974     -0.7550077     -2.1657200
H       4.1589170     -2.4659457     -0.1591191
H       4.7387645     -0.7737074      1.2719761
H       1.6642533      1.3594603      0.8883849
H       1.2900209      3.4833337      2.1540036
H       2.8636449      4.1534064      3.9566298
H       4.8414609      2.7259791      4.4662387
H       5.2269356      0.6359495      3.1790013
H      -0.1913506     -1.4844417      4.6291273
C      -0.3381742     -1.0207036      3.6587083
H      -1.6793758      0.7485698      3.8725744
H       2.1039035     -2.4323710      2.7943920
C      -1.0615789      0.0703753      3.2922824
H       1.1325164     -3.0454724      1.4180464
C       1.0970804     -2.7029788      2.4556244
N       0.2320422     -1.5294085      2.5117746
H      -6.3673762     -0.9579309      2.0453480
H      -6.7280038     -3.2742920      1.1802385
C      -5.6565063     -1.3867585      1.3370835
C      -5.8622159     -2.7003066      0.8471405
N      -0.9181025      0.2005592      1.9229634
H       0.6699403     -3.4789403      3.1001882
C      -0.1179369     -0.7762311      1.4733087
C      -4.5711161     -0.6468969      0.9272955
C      -4.9707685     -3.2444067     -0.0479074
H      -0.7613288      2.7395498      2.5192353
H      -4.4227218      0.3655338      1.3085165
H      -5.1191002     -4.2552234     -0.4346237
C      -1.5125283      1.2433972      1.1413307
C      -1.3348172      2.5705255      1.6076322
C      -3.6298506     -1.1859683      0.0048515
C      -3.8392775     -2.5075398     -0.4895260
H       0.2457083     -0.9203416      0.4521978
C      -2.4871701     -0.4534490     -0.4360277
C      -2.9031622     -3.0529369     -1.4141484
C      -2.2484082      0.9471570      0.0124836
C      -1.8762264      3.6152202      0.9080905
H      -3.0675873     -4.0641556     -1.7922226
H      -1.7404029      4.6406504      1.2561011
C      -1.8095823     -2.3378972     -1.8235319
C      -1.5961914     -1.0200713     -1.3313273
C      -2.8066004      2.0381354     -0.7321173
C      -2.6150385      3.3778923     -0.2832675
O      -0.5482323     -0.2732881     -1.6980881
H      -1.0777718     -2.7624321     -2.5107169
C      -3.5594068      1.8164472     -1.9191062
C      -3.1735910      4.4500668     -1.0312211
H      -3.7084383      0.7938347     -2.2682899
H      -3.0179345      5.4712127     -0.6776188
C      -4.0880577      2.8734110     -2.6212198
C      -3.8936330      4.2046770     -2.1751404
H      -4.6599182      2.6878689     -3.5315501
H      -4.3180743      5.0332512     -2.7438895
H       1.2149409      2.0032754     -2.9021575
C       3.9467523      1.3928346     -1.1727433
C       4.7812451      0.2275731     -1.2864481
C       2.7108163     -0.2109226     -2.2627800
C       1.5748053      1.9743010     -1.8638417
C       4.0286726     -0.8005584     -1.8476359
N       2.6705224      1.0428942     -1.7392495
O       1.8146671     -0.7421058     -2.9192869
O       4.1588462      2.5103218     -0.7380387
H       5.8262911      0.2177992     -0.9912033
H       1.9554808      2.9601267     -1.5703879
H       4.4074470     -1.6575420     -2.4060357
H       0.7287793      1.6920530     -1.2200841
          85

O       0.9536401     -2.5640945     -0.8642715
C       2.1549260     -2.7193532     -1.0016607
O       2.6544760     -3.5997664     -1.8807051
C       1.7230522     -4.1969645     -2.7873664
C       2.4886569     -5.1347659     -3.6922212
C       3.2020995     -1.9458272     -0.3214176
N       2.7908521     -0.9843021      0.5394854
C       3.7153733     -0.3685462      1.2024308
C       3.4429908      0.8406583      1.9815027
C       2.3300995      1.6515327      1.7021858
C       2.1294714      2.8337432      2.4081527
C       3.0229740      3.2208779      3.4105530
C       4.1328565      2.4229592      3.6911077
C       4.3461697      1.2490009      2.9723625
H       0.9459455     -4.7235648     -2.2137687
H       1.2384559     -3.3874980     -3.3541536
H       1.8032192     -5.6017628     -4.4118879
H       2.9747872     -5.9281581     -3.1078178
H       3.2607617     -4.5878148     -4.2505249
H       0.1676990     -0.7544205     -2.1678120
H       4.1560544     -2.4684772     -0.1694285
H       4.7377606     -0.7754629      1.2673373
H       1.6631636      1.3599657      0.8873884
H       1.2902085      3.4828723      2.1534091
H       2.8641323      4.1523930      3.9564145
H       4.8416835      2.7234566      4.4647469
H       5.2258809      0.6340690      3.1774415
H      -0.1912719     -1.4844817      4.6290565
C      -0.3381493     -1.0207772      3.6586288
H      -1.6792823      0.7485565      3.8725322
H       2.1040044     -2.4326363      2.7926884
C      -1.0615418      0.0703306      3.2922145
H       1.1313844     -3.0456274      1.4171945
C       1.0968460     -2.7031573      2.4548474
N       0.2319379     -1.5295206      2.5116234
H      -6.3674877     -0.9581505      2.0454267
H      -6.7280973     -3.2744499      1.1802747
C      -5.6566365     -1.3869155      1.3371043
C      -5.8623337     -2.7004487      0.8471407
N      -0.9181670      0.2004846      1.9228814
H       0.6701934     -3.4790940      3.0997631
C      -0.1181792     -0.7764115      1.4731598
C      -4.5713465     -0.6469568      0.9272199
C      -4.9709000     -3.2445366     -0.0479331
H      -0.7614270      2.7394716      2.5191943
H      -4.4229803      0.3654915      1.3084125
H      -5.1191996     -4.2553608     -0.4346474
C      -1.5125765      1.2433226      1.1412415
C      -1.3348972      2.5704493      1.6075790
C      -3.6301180     -1.1860154      0.0047655
C      -3.8395107     -2.5076137     -0.4895921
H       0.2451700     -0.9206898      0.4519191
C      -2.4874591     -0.4535207     -0.4361111
C      -2.9035126     -3.0530200     -1.4143268
C      -2.2484887      0.9470700      0.0124089
C      -1.8763744      3.6151541      0.9081088
H      -3.0679667     -4.0642638     -1.7923280
H      -1.7406323      4.6405699      1.2561931
C      -1.8101298     -2.3379239     -1.8239368
C      -1.5966761     -1.0201225     -1.3316120
C      -2.8066183      2.0381048     -0.7321603
C      -2.6150988      3.3778638     -0.2832933
O      -0.5489131     -0.2734068     -1.6983520
H      -1.0783314     -2.7623752     -2.5111358
C      -3.5594962      1.8164212     -1.9190885
C      -3.1735653      4.4500866     -1.0312372
H      -3.7085880      0.7938079     -2.2682396
H      -3.0178891      5.4712220     -0.6776115
C      -4.0881292      2.8734134     -2.6211632
C      -3.8935802      4.2046921     -2.1751652
H      -4.6600681      2.6878931     -3.5314487
H      -4.3179856      5.0332567     -2.7439558
H       1.2117764      2.0031845     -2.9031977
C       3.9442471      1.3888491     -1.1769643
C       4.7777450      0.2225151     -1.2960370
C       2.7053543     -0.2121294     -2.2677454
C       1.5723181      1.9735878     -1.8651288
C       4.0237922     -0.8026996     -1.8591978
N       2.6672102      1.0411042     -1.7420415
O       1.8074797     -0.7424732     -2.9222401
O       4.1584817      2.5052624     -0.7406414
H       5.8229763      0.2102851     -1.0014763
H       1.9539441      2.9590173     -1.5715841
H       4.3990467     -1.6616800     -2.4166096
H       0.7265115      1.6917461     -1.2209545
          85

O       0.9484340     -2.5665023     -0.8689909
C       2.1498490     -2.7216724     -1.0061069
O       2.6518023     -3.6019906     -1.8838921
C       1.7214241     -4.1997240     -2.7896903
C       2.4883791     -5.1363011     -3.6939252
C       3.1976565     -1.9499297     -0.3273773
N       2.7902266     -0.9884504      0.5348196
C       3.7137936     -0.3713622      1.1986530
C       3.4419403      0.8384999      1.9795816
C       2.3297558      1.6511151      1.7013876
C       2.1295061      2.8334315      2.4077640
C       3.0229402      3.2202783      3.4102868
C       4.1325965      2.4217063      3.6901102
C       4.3452281      1.2474903      2.9709700
H       0.9448380     -4.7270651     -2.2160236
H       1.2357663     -3.3909997     -3.3566808
H       1.8040469     -5.6040164     -4.4141453
H       2.9751321     -5.9291037     -3.1092413
H       3.2601945     -4.5882065     -4.2515212
H       0.1665324     -0.7539511     -2.1700148
H       4.1527208     -2.4721170     -0.1817526
H       4.7368518     -0.7769600      1.2628038
H       1.6622098      1.3606292      0.8866297
H       1.2904076      3.4827495      2.1529128
H       2.8644372      4.1517318      3.9563673
H       4.8418366      2.7215992      4.4636333
H       5.2249617      0.6326550      3.1764134
H      -0.1911719     -1.4844435      4.6290522
C      -0.3381662     -1.0208420      3.6585919
H      -1.6792762      0.7485202      3.8724714
H       2.1041363     -2.4329225      2.7909903
C      -1.0615247      0.0703022      3.2921534
H       1.1302205     -3.0458034      1.4163846
C       1.0966269     -2.7033219      2.4541074
N       0.2318549     -1.5296074      2.5115425
H      -6.3675799     -0.9583918      2.0454917
H      -6.7281757     -3.2745899      1.1802409
C      -5.6567019     -1.3870899      1.3371545
C      -5.8624246     -2.7005806      0.8470897
N      -0.9182007      0.2004315      1.9228144
H       0.6704629     -3.4792189      3.0993949
C      -0.1184228     -0.7766181      1.4730548
C      -4.5715753     -0.6469708      0.9271199
C      -4.9709974     -3.2447029     -0.0479671
H      -0.7615623      2.7394324      2.5191554
H      -4.4232499      0.3655042      1.3082665
H      -5.1192628     -4.2555431     -0.4346590
C      -1.5125986      1.2432602      1.1411530
C      -1.3349733      2.5703828      1.6075081
C      -3.6303923     -1.1860449      0.0046527
C      -3.8397335     -2.5076872     -0.4896842
H       0.2447994     -0.9210131      0.4517399
C      -2.4877380     -0.4535623     -0.4362138
C      -2.9037950     -3.0531065     -1.4144833
C      -2.2485431      0.9470028      0.0123308
C      -1.8765693      3.6150692      0.9081051
H      -3.0682868     -4.0643761     -1.7924067
H      -1.7409236      4.6404730      1.2562587
C      -1.8105950     -2.3379615     -1.8242888
C      -1.5971140     -1.0201725     -1.3318750
C      -2.8065923      2.0380801     -0.7322222
C      -2.6151935      3.3778428     -0.2833299
O      -0.5494693     -0.2736287     -1.6986170
H      -1.0787932     -2.7623482     -2.5114691
C      -3.5595944      1.8163708     -1.9190443
C      -3.1735236      4.4501481     -1.0312490
H      -3.7086943      0.7937638     -2.2682030
H      -3.0179218      5.4712615     -0.6775267
C      -4.0882014      2.8734025     -2.6210610
C      -3.8934825      4.2047083     -2.1751832
H      -4.6602102      2.6879323     -3.5313125
H      -4.3179266      5.0332424     -2.7439891
H       1.2090956      2.0026801     -2.9043617
C       3.9417875      1.3850654     -1.1804716
C       4.7735252      0.2168480     -1.3054176
C       2.7002178     -0.2130630     -2.2724341
C       1.5700697      1.9727381     -1.8664505
C       4.0184519     -0.8053356     -1.8712045
N       2.6642927      1.0395985     -1.7446343
O       1.8007690     -0.7430475     -2.9247715
O       4.1580751      2.5008126     -0.7431958
H       5.8187477      0.2011522     -1.0110980
H       1.9521090      2.9579920     -1.5728845
H       4.3901616     -1.6658985     -2.4287628
H       0.7244433      1.6909495     -1.2220750
          85

O       0.9440046     -2.5679461     -0.8726041
C       2.1451977     -2.7243673     -1.0109767
O       2.6505075     -3.6035037     -1.8864895
C       1.7207592     -4.2014387     -2.7906537
C       2.4881189     -5.1371226     -3.6947563
C       3.1915324     -1.9566794     -0.3376425
N       2.7900857     -0.9929302      0.5308550
C       3.7121428     -0.3734568      1.1959489
C       3.4411841      0.8377659      1.9785060
C       2.3295531      1.6510932      1.7009803
C       2.1294382      2.8333498      2.4075150
C       3.0228101      3.2198402      3.4101630
C       4.1324904      2.4211203      3.6896796
C       4.3447481      1.2466090      2.9703366
H       0.9442473     -4.7289753     -2.2170184
H       1.2342969     -3.3930844     -3.3576782
H       1.8040052     -5.6050937     -4.4149844
H       2.9751892     -5.9297765     -3.1101709
H       3.2595043     -4.5882796     -4.2521891
H       0.1649552     -0.7544947     -2.1725138
H       4.1473746     -2.4779557     -0.1930819
H       4.7361703     -0.7773804      1.2593319
H       1.6618197      1.3607837      0.8861954
H       1.2903637      3.4826160      2.1524169
H       2.8643770      4.1513558      3.9561746
H       4.8417870      2.7208026      4.4632575
H       5.2243739      0.6316750      3.1760413
H      -0.1911067     -1.4844087      4.6290637
C      -0.3382508     -1.0209113      3.6585881
H      -1.6794794      0.7483790      3.8724595
H       2.1042819     -2.4332248      2.7894531
C      -1.0615733      0.0702646      3.2921130
H       1.1290516     -3.0459240      1.4156752
C       1.0964421     -2.7034342      2.4534801
N       0.2317674     -1.5296540      2.5115255
H      -6.3676900     -0.9584708      2.0453669
H      -6.7281982     -3.2747425      1.1800804
C      -5.6567288     -1.3872034      1.3371854
C      -5.8624990     -2.7006417      0.8469747
N      -0.9182162      0.2004121      1.9227757
H       0.6704808     -3.4791828      3.0991132
C      -0.1186540     -0.7768672      1.4729693
C      -4.5717571     -0.6469369      0.9270469
C      -4.9710969     -3.2448313     -0.0479913
H      -0.7617277      2.7393845      2.5191830
H      -4.4234121      0.3655180      1.3081593
H      -5.1192979     -4.2556698     -0.4347014
C      -1.5126090      1.2432228      1.1411063
C      -1.3350057      2.5703272      1.6074507
C      -3.6306153     -1.1860729      0.0045882
C      -3.8399367     -2.5077400     -0.4897664
H       0.2445721     -0.9217153      0.4516707
C      -2.4879657     -0.4535712     -0.4362648
C      -2.9039683     -3.0531828     -1.4145797
C      -2.2485903      0.9469738      0.0122848
C      -1.8767060      3.6149983      0.9080722
H      -3.0686317     -4.0644649     -1.7924542
H      -1.7410985      4.6403694      1.2562245
C      -1.8108563     -2.3380317     -1.8245055
C      -1.5974450     -1.0202046     -1.3320485
C      -2.8065321      2.0380617     -0.7322609
C      -2.6152838      3.3778282     -0.2833526
O      -0.5497262     -0.2740147     -1.6990012
H      -1.0791015     -2.7624179     -2.5117343
C      -3.5596708      1.8163212     -1.9189974
C      -3.1734866      4.4502123     -1.0312718
H      -3.7086596      0.7937243     -2.2682544
H      -3.0180521      5.4712800     -0.6773763
C      -4.0882502      2.8733669     -2.6209847
C      -3.8933889      4.2047043     -2.1751872
H      -4.6602593      2.6880151     -3.5312787
H      -4.3179633      5.0332209     -2.7438806
H       1.2074026      2.0010424     -2.9055539
C       3.9389396      1.3823311     -1.1818110
C       4.7685347      0.2115696     -1.3137361
C       2.6961430     -0.2136969     -2.2760763
C       1.5684688      1.9717853     -1.8677064
C       4.0111188     -0.8111590     -1.8852167
N       2.6629946      1.0388005     -1.7466592
O       1.7962748     -0.7437816     -2.9260066
O       4.1575970      2.4987988     -0.7453547
H       5.8135302      0.1938271     -1.0179823
H       1.9496177      2.9573331     -1.5740139
H       4.3811072     -1.6726742     -2.4408354
H       0.7229779      1.6893257     -1.2235455
          85

O       0.9396991     -2.5693681     -0.8762271
C       2.1405728     -2.7270282     -1.0160652
O       2.6491920     -3.6049613     -1.8891165
C       1.7200362     -4.2030970     -2.7917137
C       2.4877369     -5.1380720     -3.6954382
C       3.1858736     -1.9633039     -0.3479784
N       2.7897586     -0.9971342      0.5271195
C       3.7105905     -0.3754007      1.1931258
C       3.4405290      0.8370925      1.9773496
C       2.3293392      1.6509007      1.7005949
C       2.1292556      2.8332047      2.4072027
C       3.0226375      3.2192746      3.4098453
C       4.1323527      2.4203496      3.6893461
C       4.3443285      1.2456965      2.9697576
H       0.9436769     -4.7307808     -2.2180092
H       1.2329115     -3.3951568     -3.3587307
H       1.8039164     -5.6067100     -4.4154632
H       2.9753263     -5.9302522     -3.1106779
H       3.2586495     -4.5887911     -4.2531278
H       0.1632707     -0.7557403     -2.1751910
H       4.1421971     -2.4838757     -0.2043000
H       4.7355641     -0.7778184      1.2556031
H       1.6613041      1.3608525      0.8859077
H       1.2898847      3.4821733      2.1524141
H       2.8640889      4.1506911      3.9560123
H       4.8416414      2.7200538      4.4629346
H       5.2238799      0.6306675      3.1755979
H      -0.1915197     -1.4846889      4.6290046
C      -0.3383511     -1.0209882      3.6585653
H      -1.6796585      0.7482421      3.8723781
H       2.1042599     -2.4334117      2.7879541
C      -1.0617439      0.0701355      3.2920919
H       1.1279964     -3.0459089      1.4150112
C       1.0961476     -2.7035458      2.4529102
N       0.2315999     -1.5297550      2.5114481
H      -6.3678462     -0.9584263      2.0453194
H      -6.7284154     -3.2746060      1.1800639
C      -5.6569521     -1.3871226      1.3370041
C      -5.8626545     -2.7006035      0.8469383
N      -0.9182964      0.2002935      1.9227056
H       0.6704062     -3.4792050      3.0988367
C      -0.1188255     -0.7770410      1.4728791
C      -4.5718116     -0.6470010      0.9270628
C      -4.9712232     -3.2447489     -0.0480970
H      -0.7617012      2.7393211      2.5191787
H      -4.4234545      0.3654659      1.3082232
H      -5.1194687     -4.2555849     -0.4348104
C      -1.5126478      1.2431669      1.1411121
C      -1.3350031      2.5703003      1.6074646
C      -3.6306988     -1.1861068      0.0046311
C      -3.8400368     -2.5077325     -0.4897507
H       0.2439010     -0.9224848      0.4514283
C      -2.4880044     -0.4536413     -0.4362538
C      -2.9041762     -3.0532387     -1.4145926
C      -2.2486436      0.9469381      0.0123044
C      -1.8765809      3.6150272      0.9080945
H      -3.0687895     -4.0644911     -1.7925304
H      -1.7409478      4.6404288      1.2562574
C      -1.8111298     -2.3381804     -1.8245456
C      -1.5976680     -1.0203094     -1.3322018
C      -2.8066202      2.0380480     -0.7322346
C      -2.6151967      3.3778097     -0.2833413
O      -0.5498964     -0.2746267     -1.6996659
H      -1.0794579     -2.7624150     -2.5119195
C      -3.5596217      1.8163306     -1.9190589
C      -3.1735287      4.4501137     -1.0312601
H      -3.7087214      0.7937167     -2.2681910
H      -3.0179417      5.4712314     -0.6775432
C      -4.0882181      2.8733615     -2.6210794
C      -3.8934921      4.2046667     -2.1751925
H      -4.6602426      2.6878959     -3.5313228
H      -4.3179461      5.0331990     -2.7439954
H       1.2056798      1.9992682     -2.9069944
C       3.9362065      1.3795836     -1.1832844
C       4.7637808      0.2067267     -1.3221149
C       2.6918136     -0.2142508     -2.2796150
C       1.5668340      1.9707695     -1.8691230
C       4.0033250     -0.8172810     -1.8991897
N       2.6615256      1.0379478     -1.7486767
O       1.7915582     -0.7444400     -2.9271799
O       4.1570219      2.4967136     -0.7474612
H       5.8087100      0.1870386     -1.0252641
H       1.9472370      2.9565167     -1.5751564
H       4.3722470     -1.6800591     -2.4531012
H       0.7215624      1.6878881     -1.2249255
          85

O       0.9348085     -2.5716856     -0.8809004
C       2.1358408     -2.7291057     -1.0206081
O       2.6465583     -3.6070722     -1.8924083
C       1.7183147     -4.2057506     -2.7941322
C       2.4872835     -5.1398823     -3.6968945
C       3.1816925     -1.9668691     -0.3543140
N       2.7891602     -1.0011774      0.5225132
C       3.7091044     -0.3780033      1.1891633
C       3.4396509      0.8350905      1.9753835
C       2.3289510      1.6502802      1.6998100
C       2.1291126      2.8326781      2.4067594
C       3.0225329      3.2184567      3.4094070
C       4.1319936      2.4189202      3.6884706
C       4.3435057      1.2441236      2.9684168
H       0.9423845     -4.7339436     -2.2202830
H       1.2303133     -3.3985461     -3.3614961
H       1.8044825     -5.6098677     -4.4169737
H       2.9757521     -5.9309692     -3.1113932
H       3.2577005     -4.5897645     -4.2544522
H       0.1620972     -0.7558380     -2.1777885
H       4.1388791     -2.4873923     -0.2160000
H       4.7348114     -0.7789580      1.2505626
H       1.6603057      1.3610684      0.8852600
H       1.2896711      3.4816477      2.1521888
H       2.8641833      4.1497333      3.9558843
H       4.8415236      2.7181202      4.4620574
H       5.2230734      0.6291731      3.1745794
H      -0.1918037     -1.4849683      4.6288880
C      -0.3384887     -1.0211445      3.6584851
H      -1.6798235      0.7480867      3.8722953
H       2.1041790     -2.4336730      2.7865189
C      -1.0619120      0.0699696      3.2920147
H       1.1269173     -3.0461567      1.4142943
C       1.0957960     -2.7037264      2.4522374
N       0.2313911     -1.5298933      2.5113072
H      -6.3681223     -0.9582320      2.0450830
H      -6.7286965     -3.2744730      1.1799458
C      -5.6572193     -1.3869999      1.3368188
C      -5.8629005     -2.7004983      0.8468641
N      -0.9184429      0.2001664      1.9226412
H       0.6704550     -3.4793689      3.0984498
C      -0.1190620     -0.7772017      1.4727461
C      -4.5718635     -0.6470441      0.9270991
C      -4.9714358     -3.2446269     -0.0481623
H      -0.7616769      2.7392088      2.5192248
H      -4.4234521      0.3653902      1.3083293
H      -5.1196989     -4.2554408     -0.4349297
C      -1.5127219      1.2431190      1.1411140
C      -1.3349718      2.5702535      1.6074937
C      -3.6307121     -1.1861525      0.0047339
C      -3.8401839     -2.5077285     -0.4896828
H       0.2434092     -0.9227811      0.4511802
C      -2.4880063     -0.4537363     -0.4362201
C      -2.9044841     -3.0533562     -1.4145961
C      -2.2486962      0.9468753      0.0122992
C      -1.8763966      3.6150404      0.9080859
H      -3.0692095     -4.0645951     -1.7925213
H      -1.7406756      4.6404418      1.2562215
C      -1.8115589     -2.3383689     -1.8246654
C      -1.5979421     -1.0204820     -1.3324191
C      -2.8066809      2.0380301     -0.7322007
C      -2.6151094      3.3777868     -0.2833285
O      -0.5503280     -0.2752338     -1.7003847
H      -1.0799786     -2.7625539     -2.5121071
C      -3.5595556      1.8163441     -1.9191225
C      -3.1735761      4.4500141     -1.0312649
H      -3.7086250      0.7937086     -2.2682039
H      -3.0179232      5.4711559     -0.6776433
C      -4.0881697      2.8733333     -2.6212007
C      -3.8936017      4.2046072     -2.1751885
H      -4.6601309      2.6878288     -3.5314770
H      -4.3180244      5.0331735     -2.7439679
H       1.2029620      1.9985397     -2.9083922
C       3.9338338      1.3757901     -1.1869618
C       4.7594371      0.2011168     -1.3319278
C       2.6863484     -0.2151765     -2.2841134
C       1.5645265      1.9698811     -1.8706633
C       3.9976312     -0.8201024     -1.9106178
N       2.6584564      1.0363687     -1.7512227
O       1.7844914     -0.7449114     -2.9295712
O       4.1564330      2.4922813     -0.7499508
H       5.8044699      0.1783504     -1.0356158
H       1.9454393      2.9554555     -1.5768041
H       4.3623289     -1.6835315     -2.4654063
H       0.7193944      1.6872773     -1.2262175
          85

O       0.9301318     -2.5739679     -0.8855002
C       2.1312762     -2.7313051     -1.0249922
O       2.6438001     -3.6091194     -1.8956513
C       1.7164366     -4.2085291     -2.7966673
C       2.4868555     -5.1418508     -3.6985795
C       3.1770824     -1.9710446     -0.3604979
N       2.7883541     -1.0046895      0.5181676
C       3.7077047     -0.3803665      1.1853547
C       3.4387134      0.8331234      1.9733285
C       2.3285132      1.6495410      1.6988954
C       2.1290234      2.8319722      2.4062228
C       3.0224650      3.2174626      3.4088995
C       4.1316378      2.4172482      3.6873825
C       4.3426064      1.2423398      2.9668756
H       0.9408387     -4.7373044     -2.2228706
H       1.2275809     -3.4020978     -3.3644480
H       1.8051514     -5.6131843     -4.4187919
H       2.9761649     -5.9318903     -3.1123716
H       3.2567844     -4.5908250     -4.2559248
H       0.1607543     -0.7558475     -2.1803421
H       4.1354896     -2.4903445     -0.2265820
H       4.7340159     -0.7802267      1.2456715
H       1.6593101      1.3612356      0.8844241
H       1.2895890      3.4809836      2.1517190
H       2.8644106      4.1486520      3.9556234
H       4.8414864      2.7158373      4.4609330
H       5.2221618      0.6274078      3.1732586
H      -0.1919619     -1.4851944      4.6287659
C      -0.3386150     -1.0213140      3.6583845
H      -1.6799600      0.7479176      3.8722410
H       2.1041419     -2.4339644      2.7850056
C      -1.0620443      0.0698169      3.2919425
H       1.1258029     -3.0463910      1.4135319
C       1.0954732     -2.7039237      2.4515310
N       0.2311971     -1.5300347      2.5111406
H      -6.3683894     -0.9580653      2.0448651
H      -6.7290010     -3.2743393      1.1797963
C      -5.6574434     -1.3869122      1.3366914
C      -5.8631560     -2.7004042      0.8467759
N      -0.9185786      0.2000601      1.9225756
H       0.6704993     -3.4795026      3.0980696
C      -0.1193228     -0.7773722      1.4725953
C      -4.5719489     -0.6470621      0.9271228
C      -4.9716547     -3.2445613     -0.0481977
H      -0.7616821      2.7391079      2.5192476
H      -4.4234960      0.3653554      1.3083864
H      -5.1199384     -4.2553577     -0.4350063
C      -1.5127931      1.2430690      1.1410998
C      -1.3349535      2.5701985      1.6074938
C      -3.6307802     -1.1862064      0.0048274
C      -3.8403682     -2.5077484     -0.4896234
H       0.2429081     -0.9231331      0.4509238
C      -2.4880813     -0.4538402     -0.4361990
C      -2.9048268     -3.0534835     -1.4146227
C      -2.2487390      0.9468064      0.0122707
C      -1.8762807      3.6150214      0.9080579
H      -3.0696827     -4.0647163     -1.7925110
H      -1.7404908      4.6404238      1.2561664
C      -1.8120307     -2.3385478     -1.8248727
C      -1.5982907     -1.0206450     -1.3326524
C      -2.8066985      2.0380057     -0.7321983
C      -2.6150638      3.3777609     -0.2833310
O      -0.5508615     -0.2756764     -1.7009951
H      -1.0805294     -2.7626896     -2.5123734
C      -3.5595115      1.8163332     -1.9191644
C      -3.1736019      4.4499564     -1.0312674
H      -3.7085115      0.7936850     -2.2682374
H      -3.0179689      5.4711075     -0.6776624
C      -4.0881356      2.8732995     -2.6212712
C      -3.8936596      4.2045573     -2.1751814
H      -4.6600388      2.6877875     -3.5315831
H      -4.3181179      5.0331369     -2.7439161
H       1.2000372      1.9979737     -2.9096761
C       3.9312234      1.3719593     -1.1908074
C       4.7554794      0.1960008     -1.3416464
C       2.6808579     -0.2162057     -2.2886612
C       1.5621094      1.9691192     -1.8721303
C       3.9918468     -0.8230242     -1.9224966
N       2.6553384      1.0347141     -1.7538554
O       1.7775151     -0.7453157     -2.9321005
O       4.1559192      2.4876661     -0.7525221
H       5.8006930      0.1707549     -1.0459867
H       1.9436798      2.9544396     -1.5782946
H       4.3533503     -1.6879772     -2.4765639
H       0.7171610      1.6868556     -1.2273553
          85

O       0.9254565     -2.5762122     -0.8900386
C       2.1266971     -2.7336231     -1.0293324
O       2.6410127     -3.6112146     -1.8989245
C       1.7145409     -4.2113582     -2.7992477
C       2.4864216     -5.1438507     -3.7003443
C       3.1724158     -1.9753623     -0.3665176
N       2.7874608     -1.0080691      0.5138978
C       3.7062795     -0.3826495      1.1816178
C       3.4377600      0.8312111      1.9712430
C       2.3280439      1.6487777      1.6979152
C       2.1289355      2.8312126      2.4056356
C       3.0224199      3.2163716      3.4083418
C       4.1313082      2.4154871      3.6862355
C       4.3417135      1.2404902      2.9652801
H       0.9392717     -4.7407237     -2.2255155
H       1.2248362     -3.4056912     -3.3674348
H       1.8058196     -5.6164832     -4.4207232
H       2.9765471     -5.9328842     -3.1134689
H       3.2558753     -4.5919007     -4.2574420
H       0.1593739     -0.7557604     -2.1828340
H       4.1320357     -2.4933616     -0.2368087
H       4.7331538     -0.7814961      1.2408894
H       1.6583204      1.3613545      0.8835056
H       1.2895319      3.4802999      2.1512102
H       2.8646858      4.1474803      3.9553071
H       4.8414821      2.7134646      4.4597427
H       5.2212296      0.6255213      3.1718179
H      -0.1920827     -1.4854099      4.6286380
C      -0.3387236     -1.0214828      3.6582768
H      -1.6800650      0.7477567      3.8721968
H       2.1041188     -2.4342575      2.7834602
C      -1.0621538      0.0696715      3.2918724
H       1.1246996     -3.0465756      1.4127333
C       1.0951614     -2.7041224      2.4508030
N       0.2310107     -1.5301782      2.5109645
H      -6.3686409     -0.9579359      2.0446876
H      -6.7293088     -3.2742105      1.1796565
C      -5.6576561     -1.3868462      1.3365908
C      -5.8634094     -2.7003248      0.8466943
N      -0.9187059      0.1999583      1.9225077
H       0.6705597     -3.4796540      3.0976488
C      -0.1195928     -0.7775492      1.4724363
C      -4.5720555     -0.6470770      0.9271420
C      -4.9718750     -3.2445240     -0.0482223
H      -0.7616997      2.7390122      2.5192544
H      -4.4235655      0.3653300      1.3084235
H      -5.1201806     -4.2553056     -0.4350648
C      -1.5128616      1.2430139      1.1410750
C      -1.3349466      2.5701394      1.6074794
C      -3.6308856     -1.1862648      0.0049089
C      -3.8405684     -2.5077817     -0.4895708
H       0.2423833     -0.9234999      0.4506563
C      -2.4882010     -0.4539456     -0.4361850
C      -2.9051826     -3.0536071     -1.4146676
C      -2.2487846      0.9467316      0.0122344
C      -1.8762022      3.6149920      0.9080283
H      -3.0701608     -4.0648376     -1.7925147
H      -1.7403633      4.6403941      1.2561204
C      -1.8125266     -2.3387065     -1.8251174
C      -1.5986820     -1.0207913     -1.3328934
C      -2.8067043      2.0379764     -0.7322092
C      -2.6150330      3.3777317     -0.2833415
O      -0.5514477     -0.2760409     -1.7015515
H      -1.0811048     -2.7627937     -2.5126845
C      -3.5594789      1.8163132     -1.9191999
C      -3.1736198      4.4499122     -1.0312684
H      -3.7084263      0.7936554     -2.2682657
H      -3.0180131      5.4710681     -0.6776637
C      -4.0881103      2.8732674     -2.6213192
C      -3.8936975      4.2045149     -2.1751754
H      -4.6599763      2.6877540     -3.5316547
H      -4.3181924      5.0331004     -2.7438757
H       1.1970542      1.9974688     -2.9108929
C       3.9285555      1.3681628     -1.1946733
C       4.7515617      0.1910116     -1.3514208
C       2.6754303     -0.2172833     -2.2932615
C       1.5596835      1.9683725     -1.8735499
C       3.9861417     -0.8260221     -1.9345340
N       2.6522337      1.0330437     -1.7565101
O       1.7706053     -0.7457170     -2.9346911
O       4.1554075      2.4830834     -0.7551239
H       5.7969326      0.1635221     -1.0562934
H       1.9419501      2.9534182     -1.5797166
H       4.3445804     -1.6926891     -2.4874736
H       0.7149464      1.6864502     -1.2284099
          85

O       0.9275463     -2.5768299     -0.8897738
C       2.1296310     -2.7321718     -1.0247652
O       2.6381544     -3.6117282     -1.8991639
C       1.7118363     -4.2133729     -2.8026573
C       2.4860545     -5.1466705     -3.7028954
C       3.1754418     -1.9695500     -0.3507290
N       2.7852292     -1.0023953      0.5154704
C       3.7074057     -0.3813136      1.1810538
C       3.4375427      0.8293758      1.9689730
C       2.3271733      1.6467459      1.6960082
C       2.1289336      2.8288494      2.4044297
C       3.0228836      3.2139162      3.4069411
C       4.1310306      2.4120279      3.6840218
C       4.3410424      1.2377874      2.9625634
H       0.9366435     -4.7435470     -2.2295424
H       1.2224103     -3.4084076     -3.3719639
H       1.8070442     -5.6211706     -4.4236544
H       2.9769066     -5.9342807     -3.1146191
H       3.2555516     -4.5944810     -4.2597019
H       0.1597806     -0.7533763     -2.1813760
H       4.1378015     -2.4832742     -0.2253070
H       4.7325410     -0.7834155      1.2404249
H       1.6572537      1.3602996      0.8815761
H       1.2899770      3.4786790      2.1503724
H       2.8660840      4.1449131      3.9543290
H       4.8417859      2.7088283      4.4574252
H       5.2204698      0.6224774      3.1682527
H      -0.1917615     -1.4857479      4.6282220
C      -0.3386707     -1.0217819      3.6579219
H      -1.6796547      0.7476785      3.8723328
H       2.1038604     -2.4342737      2.7839669
C      -1.0620530      0.0694956      3.2918005
H       1.1252359     -3.0467910      1.4125251
C       1.0951067     -2.7043129      2.4505651
N       0.2308692     -1.5303864      2.5104786
H      -6.3689623     -0.9574392      2.0445292
H      -6.7299394     -3.2737060      1.1795471
C      -5.6579040     -1.3865557      1.3366239
C      -5.8638499     -2.7000053      0.8467504
N      -0.9189158      0.1998915      1.9224748
H       0.6706346     -3.4800487      3.0971811
C      -0.1197709     -0.7774125      1.4721621
C      -4.5720254     -0.6470617      0.9273839
C      -4.9722377     -3.2443646     -0.0479953
H      -0.7615319      2.7388972      2.5191894
H      -4.4234231      0.3653327      1.3086530
H      -5.1206979     -4.2551040     -0.4348910
C      -1.5130011      1.2429797      1.1410763
C      -1.3348840      2.5700842      1.6074650
C      -3.6308230     -1.1863882      0.0052663
C      -3.8407314     -2.5078509     -0.4892569
H       0.2420466     -0.9226550      0.4502620
C      -2.4883059     -0.4541432     -0.4360106
C      -2.9056646     -3.0536942     -1.4146482
C      -2.2488043      0.9466052      0.0121962
C      -1.8759796      3.6149570      0.9079356
H      -3.0708021     -4.0649265     -1.7924139
H      -1.7399946      4.6403658      1.2559557
C      -1.8131335     -2.3387113     -1.8254832
C      -1.5991130     -1.0208774     -1.3330218
C      -2.8066428      2.0379129     -0.7322572
C      -2.6149309      3.3776739     -0.2833793
O      -0.5525924     -0.2750748     -1.7013319
H      -1.0817730     -2.7628189     -2.5130778
C      -3.5593223      1.8162984     -1.9193053
C      -3.1736539      4.4498362     -1.0312440
H      -3.7081558      0.7936364     -2.2684152
H      -3.0181126      5.4709886     -0.6775970
C      -4.0880003      2.8732396     -2.6214151
C      -3.8937719      4.2044629     -2.1751374
H      -4.6597679      2.6877265     -3.5318125
H      -4.3183706      5.0330599     -2.7437437
H       1.1941246      2.0011760     -2.9095985
C       3.9289836      1.3674052     -1.2000471
C       4.7565714      0.1947204     -1.3517635
C       2.6748486     -0.2185437     -2.2941282
C       1.5582580      1.9695984     -1.8728422
C       3.9942145     -0.8168606     -1.9259806
N       2.6489139      1.0314537     -1.7572300
O       1.7682526     -0.7446029     -2.9378101
O       4.1555948      2.4784677     -0.7554797
H       5.8029014      0.1706445     -1.0610439
H       1.9446565      2.9531970     -1.5794515
H       4.3507027     -1.6868944     -2.4760828
H       0.7137816      1.6901717     -1.2261998
          85

O       0.9283906     -2.5746783     -0.8871841
C       2.1310265     -2.7331324     -1.0188824
O       2.6387515     -3.6112257     -1.8969192
C       1.7121685     -4.2112646     -2.8020389
C       2.4836052     -5.1477276     -3.7023751
C       3.1717870     -1.9765521     -0.3357833
N       2.7835806     -1.0006479      0.5179916
C       3.7080321     -0.3798820      1.1813841
C       3.4384950      0.8298107      1.9657619
C       2.3265581      1.6448572      1.6929240
C       2.1281204      2.8256401      2.4025413
C       3.0226970      3.2094019      3.4051288
C       4.1314121      2.4082577      3.6820572
C       4.3423280      1.2356795      2.9593051
H       0.9349665     -4.7395176     -2.2298132
H       1.2250370     -3.4055370     -3.3722337
H       1.8021919     -5.6217512     -4.4212151
H       2.9736031     -5.9357425     -3.1139274
H       3.2534088     -4.5983871     -4.2615906
H       0.1586718     -0.7553027     -2.1783424
H       4.1396306     -2.4800423     -0.2167973
H       4.7316162     -0.7854684      1.2424640
H       1.6568936      1.3574120      0.8787219
H       1.2889170      3.4757813      2.1501258
H       2.8655117      4.1396791      3.9535896
H       4.8413285      2.7048789      4.4562908
H       5.2213372      0.6193285      3.1634835
H      -0.1912811     -1.4867695      4.6273564
C      -0.3385975     -1.0225653      3.6572343
H      -1.6790735      0.7471512      3.8726698
H       2.1035189     -2.4343664      2.7826580
C      -1.0619035      0.0689445      3.2917107
H       1.1247336     -3.0471981      1.4113792
C       1.0947815     -2.7047931      2.4494280
N       0.2303413     -1.5310394      2.5094785
H      -6.3699346     -0.9563047      2.0446553
H      -6.7317454     -3.2722876      1.1792780
C      -5.6587822     -1.3857456      1.3370443
C      -5.8651794     -2.6990416      0.8469345
N      -0.9193362      0.1995575      1.9223452
H       0.6705914     -3.4805320      3.0962295
C      -0.1205677     -0.7778186      1.4714676
C      -4.5723090     -0.6468628      0.9283467
C      -4.9734432     -3.2439048     -0.0474034
H      -0.7613229      2.7386736      2.5190444
H      -4.4232577      0.3654313      1.3097003
H      -5.1223313     -4.2545594     -0.4343545
C      -1.5133263      1.2428128      1.1412217
C      -1.3347373      2.5699211      1.6073612
C      -3.6313345     -1.1865018      0.0062144
C      -3.8415291     -2.5078427     -0.4884886
H       0.2407629     -0.9233722      0.4494429
C      -2.4890458     -0.4541989     -0.4355053
C      -2.9067873     -3.0535217     -1.4143648
C      -2.2492167      0.9465226      0.0124178
C      -1.8755499      3.6148170      0.9076484
H      -3.0720832     -4.0646745     -1.7922735
H      -1.7393008      4.6402510      1.2554927
C      -1.8144383     -2.3384043     -1.8256323
C      -1.6004259     -1.0206431     -1.3330717
C      -2.8065446      2.0377881     -0.7323948
C      -2.6146806      3.3775282     -0.2835586
O      -0.5541489     -0.2743415     -1.7022130
H      -1.0832730     -2.7623582     -2.5135698
C      -3.5589376      1.8161800     -1.9196233
C      -3.1736529      4.4496688     -1.0312526
H      -3.7076103      0.7935380     -2.2688584
H      -3.0182884      5.4708064     -0.6774849
C      -4.0876794      2.8731231     -2.6216726
C      -3.8938510      4.2043053     -2.1750968
H      -4.6592836      2.6876445     -3.5321798
H      -4.3187331      5.0328959     -2.7435006
H       1.1910863      1.9991737     -2.9072312
C       3.9265418      1.3714243     -1.2011226
C       4.7603260      0.2002609     -1.3535858
C       2.6797903     -0.2187066     -2.2951446
C       1.5569870      1.9689406     -1.8711075
C       4.0041723     -0.8089874     -1.9324784
N       2.6493008      1.0321395     -1.7564028
O       1.7743849     -0.7447828     -2.9395898
O       4.1538699      2.4811415     -0.7558540
H       5.8066842      0.1814458     -1.0623385
H       1.9428848      2.9531982     -1.5793179
H       4.3608161     -1.6871102     -2.4688497
H       0.7140147      1.6893742     -1.2226168
          85

O       0.9258943     -2.5734666     -0.8886817
C       2.1296129     -2.7345685     -1.0147205
O       2.6385461     -3.6116423     -1.8947522
C       1.7122685     -4.2092448     -2.8011692
C       2.4823616     -5.1473762     -3.7010327
C       3.1661750     -1.9869992     -0.3225514
N       2.7843836     -1.0028882      0.5197232
C       3.7095685     -0.3800932      1.1819399
C       3.4395591      0.8298212      1.9642405
C       2.3267959      1.6443511      1.6921994
C       2.1278389      2.8246575      2.4023379
C       3.0221456      3.2086177      3.4051353
C       4.1314123      2.4079805      3.6814474
C       4.3431182      1.2360855      2.9580840
H       0.9330943     -4.7362316     -2.2303532
H       1.2270038     -3.4028747     -3.3720880
H       1.8002823     -5.6206395     -4.4197710
H       2.9710017     -5.9359554     -3.1121793
H       3.2532277     -4.5996984     -4.2604535
H       0.1586879     -0.7589070     -2.1746181
H       4.1409904     -2.4794195     -0.2180545
H       4.7324347     -0.7871704      1.2448760
H       1.6567492      1.3567066      0.8783769
H       1.2881113      3.4743196      2.1503648
H       2.8642771      4.1384105      3.9542002
H       4.8410728      2.7044773      4.4559959
H       5.2222854      0.6199247      3.1621882
H      -0.1911123     -1.4872049      4.6270442
C      -0.3386004     -1.0229548      3.6569719
H      -1.6787576      0.7469621      3.8727691
H       2.1034859     -2.4344923      2.7805339
C      -1.0618213      0.0686812      3.2916511
H       1.1232425     -3.0477363      1.4104583
C       1.0944055     -2.7052065      2.4485198
N       0.2299866     -1.5314621      2.5090813
H      -6.3703376     -0.9557511      2.0449705
H      -6.7326763     -3.2715544      1.1793387
C      -5.6592469     -1.3853079      1.3373683
C      -5.8659294     -2.6985000      0.8471345
N      -0.9195279      0.1993248      1.9222500
H       0.6709125     -3.4807396      3.0960210
C      -0.1209980     -0.7781923      1.4711701
C      -4.5725548     -0.6466516      0.9287940
C      -4.9741983     -3.2435432     -0.0471052
H      -0.7612400      2.7385232      2.5189846
H      -4.4232921      0.3655783      1.3102398
H      -5.1232539     -4.2541563     -0.4340989
C      -1.5134504      1.2426909      1.1412697
C      -1.3347004      2.5698074      1.6073291
C      -3.6317442     -1.1863785      0.0065659
C      -3.8421391     -2.5076845     -0.4881149
H       0.2399578     -0.9243776      0.4490571
C      -2.4894203     -0.4541651     -0.4353823
C      -2.9075668     -3.0535233     -1.4140819
C      -2.2493768      0.9465110      0.0124665
C      -1.8753981      3.6147352      0.9075566
H      -3.0730122     -4.0646818     -1.7919056
H      -1.7390336      4.6401670      1.2553661
C      -1.8152478     -2.3385384     -1.8254982
C      -1.6011334     -1.0207773     -1.3330499
C      -2.8065258      2.0377742     -0.7324504
C      -2.6145870      3.3775004     -0.2836324
O      -0.5547501     -0.2748169     -1.7031536
H      -1.0840309     -2.7625499     -2.5133271
C      -3.5588089      1.8161532     -1.9197496
C      -3.1736080      4.4496311     -1.0313076
H      -3.7074394      0.7935129     -2.2690041
H      -3.0182996      5.4707709     -0.6775191
C      -4.0875339      2.8730895     -2.6218114
C      -3.8938168      4.2042597     -2.1751466
H      -4.6590728      2.6876193     -3.5323614
H      -4.3187696      5.0328479     -2.7435019
H       1.1888326      1.9951933     -2.9059014
C       3.9236235      1.3743838     -1.2012026
C       4.7631547      0.2033201     -1.3571697
C       2.6843094     -0.2182035     -2.2973716
C       1.5553710      1.9675133     -1.8699805
C       4.0148791     -0.7993406     -1.9463536
N       2.6497717      1.0329401     -1.7549972
O       1.7787162     -0.7447345     -2.9400491
O       4.1527791      2.4823225     -0.7548304
H       5.8092298      0.1878152     -1.0645088
H       1.9393105      2.9531048     -1.5801330
H       4.3692534     -1.6866189     -2.4681290
H       0.7135172      1.6872390     -1.2204573
          85

O       0.9229320     -2.5719617     -0.8909300
C       2.1276644     -2.7360686     -1.0108288
O       2.6377688     -3.6124907     -1.8924341
C       1.7121869     -4.2075926     -2.8006139
C       2.4816434     -5.1469425     -3.6998853
C       3.1606945     -1.9975188     -0.3098266
N       2.7853977     -1.0053543      0.5217516
C       3.7110729     -0.3805282      1.1829545
C       3.4405973      0.8298544      1.9632184
C       2.3270454      1.6439487      1.6919826
C       2.1275973      2.8239769      2.4023940
C       3.0216495      3.2084667      3.4052495
C       4.1314375      2.4083290      3.6810100
C       4.3438721      1.2369025      2.9572729
H       0.9309459     -4.7336337     -2.2316429
H       1.2288755     -3.4005142     -3.3722303
H       1.7994698     -5.6193980     -4.4190885
H       2.9687884     -5.9361271     -3.1105762
H       3.2537591     -4.6005257     -4.2588510
H       0.1588279     -0.7626461     -2.1708817
H       4.1415359     -2.4799417     -0.2192238
H       4.7334716     -0.7885854      1.2473775
H       1.6565259      1.3559313      0.8786644
H       1.2872925      3.4730882      2.1508521
H       2.8631208      4.1379123      3.9546898
H       4.8409379      2.7048214      4.4557386
H       5.2232539      0.6210708      3.1614849
H      -0.1909886     -1.4874638      4.6268412
C      -0.3385967     -1.0232072      3.6567914
H      -1.6784475      0.7469157      3.8728192
H       2.1034920     -2.4347018      2.7781325
C      -1.0617185      0.0685380      3.2915957
H       1.1212893     -3.0485571      1.4097346
C       1.0939302     -2.7056414      2.4477278
N       0.2296755     -1.5318034      2.5088049
H      -6.3705869     -0.9553017      2.0452942
H      -6.7333588     -3.2709841      1.1795414
C      -5.6595912     -1.3849480      1.3376516
C      -5.8665079     -2.6980678      0.8473690
N      -0.9196460      0.1991456      1.9221543
H       0.6712402     -3.4807790      3.0962197
C      -0.1213438     -0.7785349      1.4709479
C      -4.5727790     -0.6464427      0.9290718
C      -4.9748354     -3.2432467     -0.0468496
H      -0.7612801      2.7383698      2.5190002
H      -4.4233569      0.3657484      1.3105637
H      -5.1240172     -4.2538370     -0.4338522
C      -1.5135075      1.2425630      1.1412588
C      -1.3346733      2.5696994      1.6072931
C      -3.6321318     -1.1862533      0.0067601
C      -3.8426980     -2.5075491     -0.4878487
H       0.2392080     -0.9254053      0.4487428
C      -2.4897282     -0.4541618     -0.4353502
C      -2.9082768     -3.0536183     -1.4138392
C      -2.2494646      0.9464821      0.0124485
C      -1.8753296      3.6146711      0.9075101
H      -3.0738791     -4.0647970     -1.7915354
H      -1.7389755      4.6400913      1.2553735
C      -1.8159542     -2.3388094     -1.8253480
C      -1.6017325     -1.0210337     -1.3330196
C      -2.8065116      2.0377722     -0.7325083
C      -2.6145328      3.3774884     -0.2836956
O      -0.5551943     -0.2754873     -1.7040011
H      -1.0846487     -2.7629023     -2.5130039
C      -3.5587455      1.8161510     -1.9198356
C      -3.1735534      4.4496247     -1.0313534
H      -3.7073716      0.7935145     -2.2690971
H      -3.0182659      5.4707604     -0.6775470
C      -4.0874428      2.8730938     -2.6219037
C      -3.8937607      4.2042525     -2.1751973
H      -4.6589532      2.6876341     -3.5324730
H      -4.3187345      5.0328447     -2.7435303
H       1.1863033      1.9910069     -2.9043431
C       3.9209977      1.3769919     -1.2014172
C       4.7662531      0.2065126     -1.3621912
C       2.6885632     -0.2175255     -2.3000334
C       1.5536519      1.9659432     -1.8686900
C       4.0251026     -0.7901000     -1.9608575
N       2.6501231      1.0335549     -1.7535727
O       1.7826253     -0.7444980     -2.9406943
O       4.1517639      2.4829108     -0.7530660
H       5.8119466      0.1938908     -1.0677992
H       1.9357592      2.9528817     -1.5809792
H       4.3772238     -1.6856298     -2.4691524
H       0.7129620      1.6849205     -1.2180689
          85

O       0.9198792     -2.5700524     -0.8934289
C       2.1255221     -2.7374995     -1.0070114
O       2.6366657     -3.6136820     -1.8897652
C       1.7120070     -4.2059746     -2.8001527
C       2.4811234     -5.1463889     -3.6987412
C       3.1555361     -2.0077844     -0.2976154
N       2.7865220     -1.0079079      0.5240153
C       3.7125407     -0.3811644      1.1842976
C       3.4416469      0.8298479      1.9624783
C       2.3272889      1.6434556      1.6920112
C       2.1273298      2.8233069      2.4025461
C       3.0211753      3.2085222      3.4053405
C       4.1315523      2.4089787      3.6805547
C       4.3447132      1.2379151      2.9565814
H       0.9284542     -4.7311216     -2.2334273
H       1.2309787     -3.3979819     -3.3724414
H       1.7991284     -5.6178565     -4.4187822
H       2.9665046     -5.9363170     -3.1089463
H       3.2547279     -4.6011370     -4.2568167
H       0.1589746     -0.7665271     -2.1671499
H       4.1415783     -2.4812392     -0.2199944
H       4.7346385     -0.7898762      1.2499027
H       1.6562485      1.3550310      0.8792601
H       1.2863982      3.4717330      2.1512729
H       2.8619898      4.1376861      3.9550520
H       4.8409598      2.7056054      4.4553482
H       5.2243813      0.6225213      3.1609285
H      -0.1908630     -1.4876408      4.6266789
C      -0.3385805     -1.0234032      3.6566379
H      -1.6780673      0.7469744      3.8728446
H       2.1034857     -2.4350188      2.7753912
C      -1.0615722      0.0684619      3.2915325
H       1.1188576     -3.0497195      1.4091405
C       1.0933177     -2.7061600      2.4469832
N       0.2293370     -1.5321528      2.5085647
H      -6.3708007     -0.9548455      2.0456359
H      -6.7339920     -3.2704384      1.1798469
C      -5.6599156     -1.3845871      1.3379401
C      -5.8670623     -2.6976526      0.8476541
N      -0.9197398      0.1989781      1.9220451
H       0.6715580     -3.4807189      3.0967627
C      -0.1217068     -0.7789021      1.4707396
C      -4.5730145     -0.6462194      0.9292939
C      -4.9754800     -3.2429675     -0.0465718
H      -0.7613166      2.7382024      2.5189770
H      -4.4234359      0.3659471      1.3107947
H      -5.1247850     -4.2535444     -0.4335597
C      -1.5135412      1.2424413      1.1412074
C      -1.3346794      2.5695805      1.6072463
C      -3.6325363     -1.1861287      0.0068990
C      -3.8432856     -2.5074280     -0.4876022
H       0.2384203     -0.9264799      0.4484397
C      -2.4900327     -0.4541782     -0.4353637
C      -2.9090284     -3.0537691     -1.4136004
C      -2.2495258      0.9464402      0.0123853
C      -1.8753015      3.6145910      0.9074813
H      -3.0748076     -4.0649725     -1.7911498
H      -1.7389549      4.6399937      1.2554032
C      -1.8166904     -2.3391605     -1.8252026
C      -1.6023334     -1.0213633     -1.3330145
C      -2.8064911      2.0377649     -0.7325792
C      -2.6144838      3.3774723     -0.2837527
O      -0.5556076     -0.2762917     -1.7048804
H      -1.0853120     -2.7633503     -2.5126929
C      -3.5587066      1.8161623     -1.9199224
C      -3.1734950      4.4496243     -1.0314004
H      -3.7073470      0.7935327     -2.2691951
H      -3.0182202      5.4707551     -0.6775723
C      -4.0873759      2.8731170     -2.6219875
C      -3.8936993      4.2042669     -2.1752514
H      -4.6588767      2.6876739     -3.5325663
H      -4.3186806      5.0328669     -2.7435680
H       1.1833525      1.9864400     -2.9023892
C       3.9186557      1.3794925     -1.2017139
C       4.7696162      0.2100126     -1.3680095
C       2.6928255     -0.2166829     -2.3030216
C       1.5518211      1.9641192     -1.8671151
C       4.0350515     -0.7811576     -1.9753163
N       2.6505092      1.0340429     -1.7522248
O       1.7866169     -0.7441574     -2.9417308
O       4.1506400      2.4833266     -0.7508115
H       5.8148799      0.2000008     -1.0717346
H       1.9320041      2.9524290     -1.5815819
H       4.3851768     -1.6839574     -2.4713550
H       0.7125573      1.6823427     -1.2150873
          85

O       0.9168747     -2.5676909     -0.8960456
C       2.1233124     -2.7388186     -1.0032681
O       2.6352884     -3.6152227     -1.8867100
C       1.7117138     -4.2043304     -2.7997111
C       2.4806942     -5.1457209     -3.6975327
C       3.1507881     -2.0176796     -0.2860238
N       2.7877617     -1.0105168      0.5264547
C       3.7139899     -0.3820187      1.1859393
C       3.4427152      0.8297449      1.9619964
C       2.3275355      1.6428008      1.6922201
C       2.1270380      2.8225725      2.4027165
C       3.0207027      3.2086901      3.4053562
C       4.1317593      2.4098693      3.6800236
C       4.3456653      1.2390687      2.9559558
H       0.9255738     -4.7285633     -2.2356162
H       1.2333456     -3.3951873     -3.3726421
H       1.7991128     -5.6159495     -4.4187929
H       2.9639679     -5.9365820     -3.1072325
H       3.2560840     -4.6016056     -4.2542698
H       0.1590904     -0.7706325     -2.1634185
H       4.1412716     -2.4831739     -0.2204257
H       4.7359335     -0.7910975      1.2524498
H       1.6559816      1.3538559      0.8800773
H       1.2854576      3.4702473      2.1516204
H       2.8608406      4.1376347      3.9552286
H       4.8411393      2.7068027      4.4547541
H       5.2257119      0.6242412      3.1604286
H      -0.1907369     -1.4877626      4.6265360
C      -0.3385615     -1.0235650      3.6564933
H      -1.6776019      0.7471299      3.8728564
H       2.1034095     -2.4354896      2.7723319
C      -1.0613827      0.0684404      3.2914610
H       1.1159655     -3.0511388      1.4086202
C       1.0925255     -2.7067981      2.4462595
N       0.2289405     -1.5325339      2.5083350
H      -6.3709975     -0.9543338      2.0460109
H      -6.7346415     -3.2698609      1.1802597
C      -5.6602472     -1.3841906      1.3382502
C      -5.8676434     -2.6972142      0.8480044
N      -0.9198274      0.1988112      1.9219195
H       0.6717980     -3.4806215      3.0975696
C      -0.1221095     -0.7793070      1.4705261
C      -4.5732682     -0.6459704      0.9294860
C      -4.9761815     -3.2426834     -0.0462461
H      -0.7613553      2.7380002      2.5189396
H      -4.4235249      0.3661800      1.3109692
H      -5.1256202     -4.2532546     -0.4331955
C      -1.5135814      1.2423033      1.1411283
C      -1.3347080      2.5694367      1.6071967
C      -3.6329740     -1.1860020      0.0070067
C      -3.8439378     -2.5073165     -0.4873489
H       0.2375824     -0.9276153      0.4481300
C      -2.4903489     -0.4542195     -0.4354228
C      -2.9098712     -3.0539795     -1.4133479
C      -2.2495760      0.9463777      0.0122800
C      -1.8752769      3.6144938      0.9074544
H      -3.0758552     -4.0652117     -1.7907253
H      -1.7389077      4.6398775      1.2554262
C      -1.8175081     -2.3396021     -1.8250620
C      -1.6029730     -1.0217752     -1.3330515
C      -2.8064718      2.0377502     -0.7326658
C      -2.6144382      3.3774443     -0.2838072
O      -0.5560273     -0.2772506     -1.7058621
H      -1.0860865     -2.7639109     -2.5124063
C      -3.5586826      1.8161851     -1.9200202
C      -3.1734298      4.4496189     -1.0314420
H      -3.7073477      0.7935660     -2.2693104
H      -3.0181579      5.4707410     -0.6775857
C      -4.0873223      2.8731583     -2.6220741
C      -3.8936304      4.2042948     -2.1753042
H      -4.6588222      2.6877396     -3.5326584
H      -4.3186054      5.0329129     -2.7435997
H       1.1797985      1.9815208     -2.8999023
C       3.9165929      1.3819512     -1.2020844
C       4.7732230      0.2138686     -1.3743923
C       2.6971445     -0.2156774     -2.3063074
C       1.5498421      1.9620222     -1.8651767
C       4.0447627     -0.7724521     -1.9895920
N       2.6509466      1.0344497     -1.7510109
O       1.7908024     -0.7437435     -2.9431875
O       4.1493735      2.4836668     -0.7481657
H       5.8180399      0.2062852     -1.0762090
H       1.9280366      2.9517563     -1.5819442
H       4.3932710     -1.6815706     -2.4746015
H       0.7123259      1.6793418     -1.2113970
          85

O       0.9140426     -2.5648310     -0.8986925
C       2.1211469     -2.7399526     -0.9996182
O       2.6336787     -3.6171220     -1.8832675
C       1.7112893     -4.2026399     -2.7992503
C       2.4802808     -5.1449483     -3.6962292
C       3.1465221     -2.0270285     -0.2751976
N       2.7891445     -1.0131190      0.5289816
C       3.7154470     -0.3830885      1.1878604
C       3.4438165      0.8295137      1.9617790
C       2.3277775      1.6419167      1.6926170
C       2.1267094      2.8217123      2.4028957
C       3.0202446      3.2089362      3.4052531
C       4.1320811      2.4109856      3.6793817
C       4.3467500      1.2403361      2.9553861
H       0.9222896     -4.7258928     -2.2381359
H       1.2359915     -3.3920857     -3.3727766
H       1.7993319     -5.6136196     -4.4191139
H       2.9610399     -5.9369770     -3.1054182
H       3.2577966     -4.6019803     -4.2511470
H       0.1591596     -0.7749809     -2.1597097
H       4.1408037     -2.4855047     -0.2206734
H       4.7373558     -0.7923007      1.2550436
H       1.6557102      1.3522835      0.8811495
H       1.2844336      3.4685515      2.1519298
H       2.8596832      4.1377312      3.9551626
H       4.8415019      2.7084251      4.4539081
H       5.2272714      0.6262081      3.1599668
H      -0.1906146     -1.4878408      4.6264081
C      -0.3385474     -1.0237047      3.6563536
H      -1.6770404      0.7473838      3.8728567
H       2.1032157     -2.4361760      2.7690215
C      -1.0611495      0.0684681      3.2913803
H       1.1125885     -3.0529777      1.4081868
C       1.0915222     -2.7075801      2.4455394
N       0.2284671     -1.5329669      2.5081067
H      -6.3711857     -0.9537277      2.0464328
H      -6.7353455     -3.2692084      1.1807958
C      -5.6605989     -1.3837302      1.3385969
C      -5.8682813     -2.6967221      0.8484355
N      -0.9199152      0.1986321      1.9217735
H       0.6718794     -3.4805093      3.0985988
C      -0.1225717     -0.7797747      1.4703017
C      -4.5735439     -0.6456814      0.9296623
C      -4.9769750     -3.2423783     -0.0458529
H      -0.7614624      2.7377571      2.5189204
H      -4.4236163      0.3664603      1.3111006
H      -5.1265695     -4.2529506     -0.4327363
C      -1.5136131      1.2421386      1.1410077
C      -1.3347484      2.5692612      1.6071287
C      -3.6334573     -1.1858708      0.0070932
C      -3.8446812     -2.5072118     -0.4870725
H       0.2366814     -0.9288450      0.4478107
C      -2.4906873     -0.4542934     -0.4355327
C      -2.9108385     -3.0542574     -1.4130664
C      -2.2496140      0.9462876      0.0121254
C      -1.8752619      3.6143696      0.9074195
H      -3.0770631     -4.0655244     -1.7902392
H      -1.7391113      4.6396972      1.2556205
C      -1.8184393     -2.3401504     -1.8249273
C      -1.6036734     -1.0222809     -1.3331484
C      -2.8064451      2.0377235     -0.7327817
C      -2.6143861      3.3774032     -0.2838789
O      -0.5564797     -0.2783790     -1.7069898
H      -1.0870164     -2.7646087     -2.5121548
C      -3.5586687      1.8162146     -1.9201392
C      -3.1733572      4.4496116     -1.0314824
H      -3.7073681      0.7936114     -2.2694584
H      -3.0180785      5.4707199     -0.6775880
C      -4.0872768      2.8732174     -2.6221671
C      -3.8935561      4.2043358     -2.1753569
H      -4.6587834      2.6878344     -3.5327543
H      -4.3185182      5.0329795     -2.7436251
H       1.1755646      1.9762004     -2.8968049
C       3.9147991      1.3844136     -1.2025090
C       4.7770574      0.2180928     -1.3811801
C       2.7015528     -0.2145066     -2.3098753
C       1.5477163      1.9596192     -1.8628302
C       4.0542986     -0.7638909     -2.0036054
N       2.6514720      1.0347963     -1.7499673
O       1.7952351     -0.7432606     -2.9450889
O       4.1479281      2.4839993     -0.7451802
H       5.8214314      0.2127966     -1.0811390
H       1.9238410      2.9508434     -1.5820614
H       4.4014903     -1.6784940     -2.4787665
H       0.7123273      1.6758506     -1.2068981
          85

O       0.9114772     -2.5614481     -0.9013267
C       2.1191085     -2.7408508     -0.9961180
O       2.6318839     -3.6193620     -1.8794765
C       1.7107364     -4.2009078     -2.7987364
C       2.4798284     -5.1440956     -3.6948284
C       3.1427995     -2.0356963     -0.2652646
N       2.7906922     -1.0156241      0.5315044
C       3.7169388     -0.3843453      1.1900315
C       3.4449611      0.8291314      1.9618443
C       2.3280047      1.6407517      1.6932297
C       2.1263379      2.8206856      2.4030862
C       3.0198210      3.2092514      3.4049969
C       4.1325387      2.4123250      3.6786071
C       4.3479795      1.2416931      2.9548838
H       0.9186363     -4.7231000     -2.2409006
H       1.2388776     -3.3887035     -3.3728016
H       1.7997021     -5.6108477     -4.4197397
H       2.9576398     -5.9375604     -3.1035307
H       3.2598189     -4.6022993     -4.2474404
H       0.1591730     -0.7795727     -2.1560351
H       4.1402726     -2.4880572     -0.2208348
H       4.7389037     -0.7935200      1.2577051
H       1.6554253      1.3502410      0.8825130
H       1.2833139      3.4665955      2.1522012
H       2.8585552      4.1379887      3.9547872
H       4.8420788      2.7104975      4.4527675
H       5.2290768      0.6284023      3.1595489
H      -0.1905052     -1.4878800      4.6262853
C      -0.3385431     -1.0238301      3.6562066
H      -1.6763726      0.7477403      3.8728295
H       2.1029119     -2.4370870      2.7653599
C      -1.0608683      0.0685425      3.2912761
H       1.1086824     -3.0552443      1.4078559
C       1.0902948     -2.7085369      2.4448336
N       0.2279047     -1.5334719      2.5078715
H      -6.3713655     -0.9529902      2.0469062
H      -6.7361262     -3.2684466      1.1814732
C      -5.6609747     -1.3831800      1.3389879
C      -5.8689931     -2.6961516      0.8489623
N      -0.9199985      0.1984317      1.9215926
H       0.6718464     -3.4803609      3.0999474
C      -0.1230979     -0.7803244      1.4700541
C      -4.5738382     -0.6453389      0.9298269
C      -4.9778831     -3.2420389     -0.0453755
H      -0.7616256      2.7374591      2.5189025
H      -4.4236977      0.3668029      1.3111858
H      -5.1276654     -4.2526200     -0.4321606
C      -1.5136319      1.2419394      1.1408311
C      -1.3348210      2.5690439      1.6070447
C      -3.6339888     -1.1857328      0.0071616
C      -3.8455316     -2.5071125     -0.4867625
H       0.2357149     -0.9302029      0.4474702
C      -2.4910494     -0.4544063     -0.4357041
C      -2.9119506     -3.0546115     -1.4127446
C      -2.2496272      0.9461631      0.0119020
C      -1.8752983      3.6142129      0.9074007
H      -3.0784586     -4.0659211     -1.7896727
H      -1.7392379      4.6395045      1.2557440
C      -1.8194995     -2.3408240     -1.8247961
C      -1.6044451     -1.0228930     -1.3333210
C      -2.8064003      2.0376793     -0.7329428
C      -2.6143336      3.3773395     -0.2839676
O      -0.5569908     -0.2796822     -1.7083022
H      -1.0881182     -2.7654752     -2.5119302
C      -3.5586554      1.8162496     -1.9202951
C      -3.1732782      4.4495965     -1.0315241
H      -3.7073986      0.7936689     -2.2696586
H      -3.0179936      5.4706837     -0.6775704
C      -4.0872395      2.8732944     -2.6222736
C      -3.8934790      4.2043894     -2.1754125
H      -4.6587671      2.6879599     -3.5328575
H      -4.3184282      5.0330667     -2.7436414
H       1.1706067      1.9704941     -2.8930465
C       3.9132661      1.3868973     -1.2029822
C       4.7810981      0.2226926     -1.3882749
C       2.7060539     -0.2131583     -2.3137042
C       1.5454424      1.9569217     -1.8600442
C       4.0636643     -0.7554502     -2.0173200
N       2.6520938      1.0351117     -1.7491166
O       1.7999150     -0.7426983     -2.9474219
O       4.1462973      2.4843567     -0.7419011
H       5.8250455      0.2195788     -1.0864649
H       1.9194030      2.9497058     -1.5819040
H       4.4098867     -1.6747062     -2.4838057
H       0.7125948      1.6718635     -1.2015294
          85

O       0.9092525     -2.5575235     -0.9039432
C       2.1172888     -2.7414711     -0.9928038
O       2.6299559     -3.6218983     -1.8753891
C       1.7100532     -4.1991397     -2.7981416
C       2.4792754     -5.1431895     -3.6933283
C       3.1396286     -2.0436203     -0.2562400
N       2.7924178     -1.0179674      0.5339646
C       3.7184929     -0.3857612      1.1924313
C       3.4461652      0.8285895      1.9622075
C       2.3282112      1.6392673      1.6940882
C       2.1259221      2.8194632      2.4032975
C       3.0194556      3.2096332      3.4045629
C       4.1331551      2.4138899      3.6776850
C       4.3493710      1.2431274      2.9544603
H       0.9146688     -4.7201757     -2.2438011
H       1.2419519     -3.3850713     -3.3726727
H       1.8001222     -5.6076345     -4.4206400
H       2.9537091     -5.9383719     -3.1015986
H       3.2620746     -4.6026184     -4.2431863
H       0.1591112     -0.7844124     -2.1524162
H       4.1398196     -2.4906800     -0.2209840
H       4.7405755     -0.7947825      1.2604590
H       1.6551156      1.3476662      0.8842120
H       1.2820920      3.4643441      2.1524494
H       2.8574951      4.1384239      3.9540489
H       4.8429014      2.7130494      4.4512967
H       5.2311479      0.6308175      3.1591837
H      -0.1904046     -1.4878868      4.6261636
C      -0.3385537     -1.0239556      3.6560467
H      -1.6755883      0.7481967      3.8727667
H       2.1024410     -2.4382490      2.7615982
C      -1.0605372      0.0686536      3.2911401
H       1.1044889     -3.0577318      1.4075313
C       1.0888604     -2.7096633      2.4441137
N       0.2272417     -1.5340680      2.5076211
H      -6.3715319     -0.9520792      2.0474381
H      -6.7370042     -3.2675349      1.1823126
C      -5.6613755     -1.3825098      1.3394315
C      -5.8697941     -2.6954729      0.8496007
N      -0.9200852      0.1981964      1.9213681
H       0.6715961     -3.4803120      3.1013496
C      -0.1237010     -0.7809736      1.4697749
C      -4.5741459     -0.6449266      0.9299814
C      -4.9789284     -3.2416509     -0.0447960
H      -0.7618141      2.7370962      2.5188569
H      -4.4237539      0.3672245      1.3112202
H      -5.1289415     -4.2522495     -0.4314426
C      -1.5136600      1.2416928      1.1405996
C      -1.3349209      2.5687737      1.6069329
C      -3.6345723     -1.1855870      0.0072131
C      -3.8465043     -2.5070186     -0.4864086
H       0.2346827     -0.9316916      0.4471027
C      -2.4914400     -0.4545665     -0.4359486
C      -2.9132254     -3.0550559     -1.4123663
C      -2.2496251      0.9459952      0.0116018
C      -1.8753341      3.6140168      0.9073568
H      -3.0800633     -4.0664192     -1.7889986
H      -1.7393034      4.6392720      1.2558201
C      -1.8207028     -2.3416448     -1.8246638
C      -1.6053028     -1.0236237     -1.3335874
C      -2.8063531      2.0376098     -0.7331499
C      -2.6142863      3.3772455     -0.2840771
O      -0.5575888     -0.2811651     -1.7098413
H      -1.0894164     -2.7665404     -2.5117350
C      -3.5586436      1.8162867     -1.9204989
C      -3.1731936      4.4495668     -1.0315697
H      -3.7074314      0.7937367     -2.2699304
H      -3.0178934      5.4706249     -0.6775386
C      -4.0872081      2.8733886     -2.6224036
C      -3.8933997      4.2044526     -2.1754741
H      -4.6587623      2.6881190     -3.5329838
H      -4.3183312      5.0331746     -2.7436510
H       1.1649047      1.9644260     -2.8885809
C       3.9119693      1.3894256     -1.2034924
C       4.7853035      0.2276349     -1.3955511
C       2.7106431     -0.2116411     -2.3177478
C       1.5430239      1.9539351     -1.8567895
C       4.0728426     -0.7471246     -2.0305810
N       2.6528291      1.0354275     -1.7484703
O       1.8048540     -0.7420363     -2.9501774
O       4.1444799      2.4847687     -0.7383776
H       5.8288619      0.2266420     -1.0921404
H       1.9146980      2.9483528     -1.5814268
H       4.4184619     -1.6703173     -2.4894637
H       0.7131585      1.6673603     -1.1952512
          85

O       0.9074322     -2.5530408     -0.9065302
C       2.1157177     -2.7418034     -0.9896956
O       2.6279548     -3.6246695     -1.8710587
C       1.7092418     -4.1973368     -2.7974384
C       2.4785616     -5.1422587     -3.6917295
C       3.1370277     -2.0508174     -0.2480424
N       2.7943148     -1.0201301      0.5363760
C       3.7201263     -0.3873123      1.1950561
C       3.4474460      0.8278916      1.9628768
C       2.3283931      1.6374437      1.6952246
C       2.1254648      2.8180312      2.4035492
C       3.0191763      3.2100915      3.4039382
C       4.1339586      2.4156917      3.6766077
C       4.3509414      1.2446392      2.9541223
H       0.9104254     -4.7170956     -2.2467401
H       1.2451048     -3.3812398     -3.3723258
H       1.8004783     -5.6040291     -4.4217478
H       2.9492360     -5.9394303     -3.0996530
H       3.2644602     -4.6029957     -4.2384676
H       0.1590074     -0.7895902     -2.1487421
H       4.1394066     -2.4934099     -0.2209173
H       4.7423645     -0.7961153      1.2633457
H       1.6547646      1.3445210      0.8862970
H       1.2807589      3.4617726      2.1527056
H       2.8565411      4.1390610      3.9529139
H       4.8440046      2.7160953      4.4494830
H       5.2335009      0.6334509      3.1588729
H      -0.1903201     -1.4878779      4.6260319
C      -0.3385802     -1.0240953      3.6558618
H      -1.6746904      0.7487368      3.8726598
H       2.1017615     -2.4397105      2.7578144
C      -1.0601608      0.0687856      3.2909619
H       1.1000573     -3.0603275      1.4071073
C       1.0872095     -2.7109735      2.4433239
N       0.2264745     -1.5347674      2.5073406
H      -6.3716815     -0.9509514      2.0480366
H      -6.7379995     -3.2664309      1.1833363
C      -5.6618032     -1.3816873      1.3399373
C      -5.8706984     -2.6946550      0.8503686
N      -0.9201816      0.1979094      1.9210871
H       0.6710522     -3.4804428      3.1026296
C      -0.1243898     -0.7817406      1.4694507
C      -4.5744628     -0.6444267      0.9301267
C      -4.9801309     -3.2412000     -0.0440930
H      -0.7620522      2.7366492      2.5187889
H      -4.4237696      0.3677450      1.3111948
H      -5.1304301     -4.2518268     -0.4305520
C      -1.5136853      1.2413856      1.1402925
C      -1.3350406      2.5684352      1.6067777
C      -3.6352150     -1.1854321      0.0072491
C      -3.8476127     -2.5069307     -0.4859979
H       0.2335632     -0.9333641      0.4466945
C      -2.4918672     -0.4547810     -0.4362791
C      -2.9146756     -3.0556016     -1.4119128
C      -2.2496034      0.9457759      0.0112072
C      -1.8753815      3.6137657      0.9072874
H      -3.0818892     -4.0670375     -1.7881783
H      -1.7393965      4.6389774      1.2558964
C      -1.8220606     -2.3426377     -1.8245315
C      -1.6062697     -1.0244931     -1.3339613
C      -2.8062919      2.0375091     -0.7334232
C      -2.6142329      3.3771139     -0.2842239
O      -0.5582997     -0.2828414     -1.7116589
H      -1.0909255     -2.7678878     -2.5115449
C      -3.5586321      1.8163228     -1.9207655
C      -3.1731044      4.4495173     -1.0316244
H      -3.7074718      0.7938124     -2.2702888
H      -3.0177851      5.4705373     -0.6774916
C      -4.0871829      2.8734989     -2.6225674
C      -3.8933215      4.2045227     -2.1755460
H      -4.6587721      2.6883130     -3.5331424
H      -4.3182369      5.0333013     -2.7436522
H       1.1584687      1.9580319     -2.8833955
C       3.9108949      1.3920007     -1.2040155
C       4.7896185      0.2328795     -1.4028454
C       2.7153040     -0.2099693     -2.3219375
C       1.5404642      1.9506818     -1.8530550
C       4.0817672     -0.7390085     -2.0432120
N       2.6536711      1.0357629     -1.7480223
O       1.8100372     -0.7412582     -2.9533281
O       4.1424992      2.4852583     -0.7346567
H       5.8328322      0.2339658     -1.0980176
H       1.9097290      2.9467977     -1.5805911
H       4.4271389     -1.6653809     -2.4956068
H       0.7140267      1.6623511     -1.1880598
          85

O       0.9060567     -2.5480360     -0.9090857
C       2.1144698     -2.7418084     -0.9866962
O       2.6259268     -3.6275272     -1.8666396
C       1.7082493     -4.1955649     -2.7965622
C       2.4775989     -5.1413531     -3.6900043
C       3.1350170     -2.0572522     -0.2406473
N       2.7963997     -1.0220903      0.5387479
C       3.7218892     -0.3889781      1.1978921
C       3.4488274      0.8270511      1.9638668
C       2.3285569      1.6352667      1.6966687
C       2.1249716      2.8163784      2.4038630
C       3.0190118      3.2106273      3.4031149
C       4.1349851      2.4177474      3.6753639
C       4.3527250      1.2462398      2.9538683
H       0.9060197     -4.7139349     -2.2494677
H       1.2480468     -3.3774064     -3.3717544
H       1.8006577     -5.6000207     -4.4230298
H       2.9441187     -5.9407603     -3.0976510
H       3.2669317     -4.6035549     -4.2332614
H       0.1586700     -0.7950902     -2.1452639
H       4.1392641     -2.4960783     -0.2207583
H       4.7442710     -0.7975835      1.2663993
H       1.6543522      1.3407741      0.8888269
H       1.2793088      3.4588586      2.1530120
H       2.8557291      4.1399053      3.9513670
H       4.8454311      2.7196715      4.4472957
H       5.2361781      0.6363234      3.1585992
H      -0.1902408     -1.4878901      4.6258574
C      -0.3386200     -1.0242800      3.6556236
H      -1.6736613      0.7493388      3.8725024
H       2.1008241     -2.4415824      2.7540468
C      -1.0597330      0.0689160      3.2907235
H       1.0954845     -3.0630308      1.4065496
C       1.0853079     -2.7125076      2.4424165
N       0.2255880     -1.5356009      2.5069914
H      -6.3718054     -0.9495491      2.0487180
H      -6.7391407     -3.2650772      1.1845772
C      -5.6622607     -1.3806685      1.3405188
C      -5.8717286     -2.6936548      0.8512911
N      -0.9203006      0.1975540      1.9207342
H       0.6701124     -3.4808532      3.1036198
C      -0.1251918     -0.7826387      1.4690577
C      -4.5747863     -0.6438128      0.9302637
C      -4.9815241     -3.2406667     -0.0432365
H      -0.7623537      2.7360975      2.5186928
H      -4.4237269      0.3683917      1.3111007
H      -5.1321777     -4.2513346     -0.4294451
C      -1.5137110      1.2410044      1.1398879
C      -1.3351828      2.5680104      1.6065659
C      -3.6359264     -1.1852631      0.0072695
C      -3.8488821     -2.5068495     -0.4855105
H       0.2323266     -0.9351423      0.4462174
C      -2.4923405     -0.4550591     -0.4367144
C      -2.9163355     -3.0562841     -1.4113516
C      -2.2495562      0.9454946      0.0106893
C      -1.8754413      3.6134432      0.9071808
H      -3.0839827     -4.0678125     -1.7871680
H      -1.7395200      4.6386021      1.2559688
C      -1.8236115     -2.3438371     -1.8243753
C      -1.6073668     -1.0255197     -1.3344697
C      -2.8062099      2.0373685     -0.7337870
C      -2.6141712      3.3769332     -0.2844225
O      -0.5591453     -0.2847632     -1.7137861
H      -1.0927068     -2.7694699     -2.5113959
C      -3.5586150      1.8163531     -1.9211179
C      -3.1730110      4.4494399     -1.0316950
H      -3.7075081      0.7938939     -2.2707655
H      -3.0176722      5.4704107     -0.6774293
C      -4.0871640      2.8736233     -2.6227787
C      -3.8932465      4.2045959     -2.1756348
H      -4.6587986      2.6885444     -3.5333465
H      -4.3181512      5.0334452     -2.7436453
H       1.1513541      1.9513693     -2.8774886
C       3.9100355      1.3946313     -1.2044829
C       4.7940112      0.2383734     -1.4098983
C       2.7200496     -0.2081056     -2.3261374
C       1.5377505      1.9471642     -1.8488358
C       4.0904326     -0.7310605     -2.0549565
N       2.6546034      1.0361040     -1.7477584
O       1.8155140     -0.7404554     -2.9569062
O       4.1403398      2.4858469     -0.7307784
H       5.8369247      0.2414743     -1.1038740
H       1.9044930      2.9450202     -1.5793535
H       4.4363008     -1.6600122     -2.5016648
H       0.7152033      1.6568070     -1.1799720
          85

O       0.9050987     -2.5426773     -0.9116322
C       2.1135455     -2.7414934     -0.9840745
O       2.6239497     -3.6302953     -1.8622902
C       1.7071256     -4.1938786     -2.7954450
C       2.4763186     -5.1405862     -3.6881267
C       3.1335762     -2.0629084     -0.2341022
N       2.7986596     -1.0238621      0.5410665
C       3.7237673     -0.3907206      1.2009113
C       3.4503296      0.8260738      1.9651650
C       2.3287094      1.6327509      1.6984541
C       2.1244655      2.8145173      2.4042810
C       3.0190029      3.2112711      3.4021089
C       4.1362672      2.4200641      3.6739534
C       4.3547409      1.2479373      2.9536960
H       0.9016851     -4.7108691     -2.2516433
H       1.2508232     -3.3736908     -3.3709080
H       1.8004727     -5.5959033     -4.4242434
H       2.9384927     -5.9424429     -3.0956696
H       3.2691273     -4.6042460     -4.2277569
H       0.1583649     -0.8010007     -2.1417222
H       4.1391751     -2.4987645     -0.2204498
H       4.7463181     -0.7990758      1.2695966
H       1.6538955      1.3364504      0.8918242
H       1.2777583      3.4556152      2.1534218
H       2.8551194      4.1409961      3.9494158
H       4.8472251      2.7237773      4.4447278
H       5.2391931      0.6394340      3.1583623
H      -0.1901791     -1.4879460      4.6256176
C      -0.3386878     -1.0245308      3.6553110
H      -1.6725679      0.7499315      3.8722712
H       2.0996284     -2.4437481      2.7507100
C      -1.0592801      0.0690105      3.2904037
H       1.0911639     -3.0656287      1.4058743
C       1.0832568     -2.7142088      2.4414780
N       0.2245955     -1.5365696      2.5065628
H      -6.3719036     -0.9478104      2.0494792
H      -6.7404537     -3.2634215      1.1860709
C      -5.6627487     -1.3794134      1.3411848
C      -5.8729020     -2.6924373      0.8523968
N      -0.9204476      0.1971085      1.9202875
H       0.6687330     -3.4815806      3.1042251
C      -0.1260804     -0.7836773      1.4685726
C      -4.5751096     -0.6430624      0.9303898
C      -4.9831293     -3.2400390     -0.0421883
H      -0.7626933      2.7354599      2.5185294
H      -4.4236107      0.3691935      1.3109154
H      -5.1342189     -4.2507652     -0.4280699
C      -1.5137402      1.2405336      1.1393754
C      -1.3353560      2.5674873      1.6062830
C      -3.6367079     -1.1850792      0.0072757
C      -3.8503258     -2.5067820     -0.4849199
H       0.2310444     -0.9370793      0.4456552
C      -2.4928639     -0.4554085     -0.4372672
C      -2.9182260     -3.0571172     -1.4106602
C      -2.2494812      0.9451435      0.0100322
C      -1.8755193      3.6130400      0.9070258
H      -3.0863653     -4.0687660     -1.7859256
H      -1.7396798      4.6381355      1.2560291
C      -1.8253798     -2.3452649     -1.8241979
C      -1.6085923     -1.0267253     -1.3351168
C      -2.8060983      2.0371810     -0.7342619
C      -2.6140985      3.3766950     -0.2846891
O      -0.5601286     -0.2869644     -1.7162366
H      -1.0947504     -2.7713661     -2.5112273
C      -3.5585825      1.8163729     -1.9215790
C      -3.1729164      4.4493275     -1.0317915
H      -3.7075259      0.7939758     -2.2713841
H      -3.0175620      5.4702368     -0.6773568
C      -4.0871511      2.8737581     -2.6230525
C      -3.8931812      4.2046673     -2.1757486
H      -4.6588449      2.6888116     -3.5336096
H      -4.3180885      5.0336019     -2.7436318
H       1.1437008      1.9444525     -2.8709783
C       3.9092616      1.3973260     -1.2048248
C       4.7983954      0.2441253     -1.4165072
C       2.7248870     -0.2062151     -2.3303758
C       1.5349116      1.9433788     -1.8441830
C       4.0989140     -0.7233454     -2.0658424
N       2.6556091      1.0364603     -1.7476010
O       1.8213409     -0.7395821     -2.9607763
O       4.1379525      2.4866068     -0.7267532
H       5.8410328      0.2493470     -1.1093645
H       1.8989569      2.9430188     -1.5776335
H       4.4453144     -1.6541354     -2.5080896
H       0.7165611      1.6507157     -1.1712310
          85

O       0.9046421     -2.5369685     -0.9141767
C       2.1130539     -2.7408737     -0.9817678
O       2.6220599     -3.6331714     -1.8578946
C       1.7059529     -4.1921502     -2.7942057
C       2.4747013     -5.1399376     -3.6861800
C       3.1326753     -2.0676931     -0.2284987
N       2.8011280     -1.0254291      0.5432379
C       3.7258022     -0.3924977      1.2040325
C       3.4519548      0.8249665      1.9667438
C       2.3288563      1.6299192      1.7005903
C       2.1239728      2.8124600      2.4048367
C       3.0191905      3.2120100      3.4009486
C       4.1378530      2.4226242      3.6723571
C       4.3570119      1.2497238      2.9535641
H       0.8973034     -4.7075585     -2.2536063
H       1.2537096     -3.3698584     -3.3698568
H       1.7997463     -5.5919099     -4.4251787
H       2.9325597     -5.9442197     -3.0936455
H       3.2709142     -4.6052075     -4.2224091
H       0.1579438     -0.8071282     -2.1382786
H       4.1396347     -2.5009246     -0.2206244
H       4.7485227     -0.8005985      1.2728633
H       1.6533661      1.3316011      0.8953165
H       1.2761288      3.4520550      2.1539951
H       2.8547612      4.1423069      3.9471116
H       4.8494539      2.7283766      4.4417457
H       5.2425737      0.6427742      3.1580865
H      -0.1901588     -1.4880794      4.6252816
C      -0.3387989     -1.0248806      3.6548920
H      -1.6714209      0.7505057      3.8719084
H       2.0981924     -2.4462195      2.7478005
C      -1.0588316      0.0690268      3.2899598
H       1.0871790     -3.0680685      1.4050099
C       1.0810980     -2.7160737      2.4404436
N       0.2235204     -1.5376876      2.5060285
H      -6.3719741     -0.9456636      2.0503280
H      -6.7419425     -3.2614376      1.1878251
C      -5.6632745     -1.3778698      1.3419456
C      -5.8742331     -2.6909552      0.8537135
N      -0.9206233      0.1965413      1.9197100
H       0.6669529     -3.4826772      3.1043021
C      -0.1270346     -0.7848700      1.4679712
C      -4.5754323     -0.6421430      0.9304989
C      -4.9849687     -3.2392923     -0.0409132
H      -0.7631061      2.7346383      2.5183165
H      -4.4234065      0.3701864      1.3106173
H      -5.1366400     -4.2501054     -0.4263286
C      -1.5137679      1.2399519      1.1387169
C      -1.3355477      2.5668369      1.6059083
C      -3.6375679     -1.1848735      0.0072672
C      -3.8519603     -2.5067253     -0.4842097
H       0.2297450     -0.9391519      0.4449877
C      -2.4934416     -0.4558476     -0.4379577
C      -2.9203520     -3.0581273     -1.4097951
C      -2.2493735      0.9447052      0.0091996
C      -1.8756104      3.6125298      0.9068066
H      -3.0890466     -4.0699343     -1.7843778
H      -1.7398761      4.6375508      1.2560672
C      -1.8273476     -2.3469776     -1.8239591
C      -1.6099514     -1.0281463     -1.3359084
C      -2.8059526      2.0369342     -0.7348745
C      -2.6140147      3.3763843     -0.2850400
O      -0.5612861     -0.2894422     -1.7190234
H      -1.0970450     -2.7736628     -2.5109864
C      -3.5585256      1.8163745     -1.9221781
C      -3.1728262      4.4491668     -1.0319256
H      -3.7075088      0.7940517     -2.2721813
H      -3.0174650      5.4700015     -0.6772800
C      -4.0871407      2.8738966     -2.6234127
C      -3.8931302      4.2047280     -2.1759011
H      -4.6589045      2.6891105     -3.5339579
H      -4.3180576      5.0337644     -2.7436198
H       1.1356583      1.9371923     -2.8638833
C       3.9085745      1.4000751     -1.2049602
C       4.8026839      0.2499568     -1.4225977
C       2.7297362     -0.2042377     -2.3344941
C       1.5319909      1.9393719     -1.8391285
C       4.1071305     -0.7157656     -2.0759133
N       2.6566975      1.0368738     -1.7474134
O       1.8272306     -0.7385247     -2.9647145
O       4.1354424      2.4875157     -0.7226153
H       5.8451221      0.2573618     -1.1146498
H       1.8931405      2.9408640     -1.5756220
H       4.4543497     -1.6481754     -2.5143241
H       0.7181344      1.6442446     -1.1618595
          85

O       0.9047300     -2.5308301     -0.9167262
C       2.1128893     -2.7399475     -0.9798612
O       2.6203059     -3.6360099     -1.8535745
C       1.7046872     -4.1904483     -2.7928072
C       2.4727045     -5.1394838     -3.6841300
C       3.1326773     -2.0714547     -0.2240987
N       2.8038148     -1.0266962      0.5452510
C       3.7280118     -0.3942383      1.2071576
C       3.4537449      0.8238003      1.9685395
C       2.3290217      1.6268214      1.7030504
C       2.1235096      2.8102125      2.4055698
C       3.0196069      3.2128041      3.3996762
C       4.1397833      2.4253947      3.6705784
C       4.3595919      1.2516124      2.9534031
H       0.8928834     -4.7040571     -2.2551316
H       1.2565340     -3.3660229     -3.3686472
H       1.7984419     -5.5880811     -4.4258213
H       2.9262545     -5.9461984     -3.0915673
H       3.2722612     -4.6065297     -4.2171679
H       0.1575168     -0.8135460     -2.1348225
H       4.1399608     -2.5032639     -0.2202815
H       4.7509385     -0.8020027      1.2760085
H       1.6527863      1.3262872      0.8992792
H       1.2744243      3.4481920      2.1548369
H       2.8546792      4.1437680      3.9445454
H       4.8521589      2.7334038      4.4383602
H       5.2463966      0.6463668      3.1576444
H      -0.1901816     -1.4883499      4.6247952
C      -0.3389538     -1.0253772      3.6543178
H      -1.6702708      0.7509673      3.8713882
H       2.0965920     -2.4489848      2.7451556
C      -1.0584060      0.0689098      3.2893567
H       1.0834527     -3.0704347      1.4038464
C       1.0788647     -2.7181169      2.4392239
N       0.2223814     -1.5389737      2.5053352
H      -6.3720301     -0.9430562      2.0512616
H      -6.7436897     -3.2589578      1.1899796
C      -5.6638470     -1.3759894      1.3428077
C      -5.8757511     -2.6891672      0.8552700
N      -0.9208361      0.1958248      1.9189700
H       0.6648464     -3.4841242      3.1038605
C      -0.1280444     -0.7862267      1.4672113
C      -4.5757599     -0.6410251      0.9305937
C      -4.9870724     -3.2384142     -0.0393715
H      -0.7635703      2.7336327      2.5180182
H      -4.4231089      0.3714040      1.3101914
H      -5.1393207     -4.2493311     -0.4242891
C      -1.5137980      1.2392398      1.1378926
C      -1.3357526      2.5660366      1.6054186
C      -3.6385198     -1.1846434      0.0072559
C      -3.8538005     -2.5066809     -0.4833449
H       0.2284387     -0.9413730      0.4441732
C      -2.4940953     -0.4563804     -0.4387883
C      -2.9227199     -3.0593281     -1.4087076
C      -2.2492432      0.9441724      0.0081741
C      -1.8757012      3.6118929      0.9065007
H      -3.0920252     -4.0713375     -1.7824632
H      -1.7400905      4.6368267      1.2560620
C      -1.8295220     -2.3489909     -1.8236229
C      -1.6114617     -1.0297856     -1.3368394
C      -2.8057685      2.0366167     -0.7356521
C      -2.6139099      3.3759862     -0.2854969
O      -0.5626722     -0.2921592     -1.7221866
H      -1.0995890     -2.7763950     -2.5106166
C      -3.5584335      1.8163476     -1.9229476
C      -3.1727405      4.4489432     -1.0321103
H      -3.7074383      0.7941123     -2.2731963
H      -3.0173877      5.4696891     -0.6772067
C      -4.0871248      2.8740298     -2.6238858
C      -3.8930957      4.2047663     -2.1761046
H      -4.6589649      2.6894372     -3.5344219
H      -4.3180687      5.0339228     -2.7436129
H       1.1272246      1.9297199     -2.8562940
C       3.9080986      1.4028948     -1.2048244
C       4.8069215      0.2560455     -1.4280407
C       2.7345782     -0.2021205     -2.3383908
C       1.5289837      1.9351996     -1.8336938
C       4.1149509     -0.7085982     -2.0848368
N       2.6578176      1.0373187     -1.7471557
O       1.8332378     -0.7373518     -2.9686683
O       4.1327951      2.4886973     -0.7183176
H       5.8491202      0.2655502     -1.1191592
H       1.8871297      2.9385831     -1.5732309
H       4.4634631     -1.6413057     -2.5211079
H       0.7198476      1.6374288     -1.1519271
          85

O       0.9053219     -2.5245526     -0.9193399
C       2.1132625     -2.7387018     -0.9782464
O       2.6187961     -3.6386369     -1.8496399
C       1.7033909     -4.1888541     -2.7913088
C       2.4703681     -5.1392957     -3.6820628
C       3.1326630     -2.0746427     -0.2201007
N       2.8067195     -1.0277734      0.5469591
C       3.7304841     -0.3957797      1.2101209
C       3.4556943      0.8226120      1.9704595
C       2.3292149      1.6235903      1.7058715
C       2.1231396      2.8078908      2.4065744
C       3.0203188      3.2137154      3.3983931
C       4.1420801      2.4283480      3.6686647
C       4.3624500      1.2535991      2.9532144
H       0.8887654     -4.7006199     -2.2561330
H       1.2589827     -3.3625222     -3.3672715
H       1.7965693     -5.5846973     -4.4260875
H       2.9198447     -5.9482727     -3.0895017
H       3.2730111     -4.6082205     -4.2123055
H       0.1568858     -0.8198471     -2.1316862
H       4.1418574     -2.5039079     -0.2218696
H       4.7535351     -0.8033532      1.2790953
H       1.6521103      1.3207500      0.9037478
H       1.2727219      3.4441688      2.1560643
H       2.8549892      4.1454252      3.9418546
H       4.8553713      2.7387503      4.4346424
H       5.2505653      0.6501338      3.1570553
H      -0.1902727     -1.4888230      4.6241040
C      -0.3391597     -1.0260591      3.6535443
H      -1.6692408      0.7511955      3.8706558
H       2.0948328     -2.4519476      2.7429962
C      -1.0580440      0.0685996      3.2885545
H       1.0803725     -3.0724003      1.4023751
C       1.0766884     -2.7202522      2.4378108
N       0.2212393     -1.5404027      2.5044473
H      -6.3720649     -0.9399631      2.0522476
H      -6.7455749     -3.2561558      1.1923792
C      -5.6644567     -1.3737682      1.3437524
C      -5.8774079     -2.6870774      0.8570626
N      -0.9210743      0.1949487      1.9180384
H       0.6624817     -3.4859761      3.1026209
C      -0.1290420     -0.7877099      1.4662626
C      -4.5760848     -0.6397000      0.9306431
C      -4.9893798     -3.2374100     -0.0375493
H      -0.7640485      2.7324444      2.5175965
H      -4.4227247      0.3728659      1.3095837
H      -5.1424038     -4.2484790     -0.4217520
C      -1.5138214      1.2383917      1.1368811
C      -1.3359551      2.5650838      1.6047893
C      -3.6395398     -1.1843906      0.0072354
C      -3.8557938     -2.5066616     -0.4823186
H       0.2272139     -0.9436567      0.4431788
C      -2.4948121     -0.4570074     -0.4397670
C      -2.9252450     -3.0607282     -1.4073653
C      -2.2490880      0.9435429      0.0069393
C      -1.8757933      3.6111255      0.9060908
H      -3.0951835     -4.0730015     -1.7801152
H      -1.7403299      4.6359586      1.2560003
C      -1.8318318     -2.3512983     -1.8231686
C      -1.6130950     -1.0316167     -1.3379142
C      -2.8055476      2.0362252     -0.7366106
C      -2.6137892      3.3754961     -0.2860763
O      -0.5642894     -0.2950530     -1.7256529
H      -1.1022656     -2.7795077     -2.5100673
C      -3.5583048      1.8162848     -1.9239044
C      -3.1726643      4.4486512     -1.0323629
H      -3.7073102      0.7941476     -2.2744385
H      -3.0173382      5.4692947     -0.6771545
C      -4.0871035      2.8741493     -2.6244904
C      -3.8930807      4.2047739     -2.1763778
H      -4.6590259      2.6897820     -3.5350199
H      -4.3181254      5.0340680     -2.7436303
H       1.1191578      1.9225202     -2.8484476
C       3.9073674      1.4057314     -1.2043955
C       4.8108184      0.2618819     -1.4328023
C       2.7392179     -0.1999920     -2.3419307
C       1.5260052      1.9310859     -1.8280091
C       4.1226243     -0.7010649     -2.0933245
N       2.6588935      1.0379015     -1.7466483
O       1.8390396     -0.7360186     -2.9724116
O       4.1301656      2.4898714     -0.7140123
H       5.8529719      0.2736817     -1.1237462
H       1.8809304      2.9362880     -1.5702683
H       4.4723544     -1.6352873     -2.5264795
H       0.7215251      1.6305465     -1.1420547
          85

O       0.9062308     -2.5182613     -0.9218254
C       2.1138202     -2.7371405     -0.9772414
O       2.6174299     -3.6409576     -1.8458834
C       1.7020102     -4.1872258     -2.7897901
C       2.4676810     -5.1393589     -3.6798628
C       3.1343728     -2.0765533     -0.2179915
N       2.8096981     -1.0283643      0.5486687
C       3.7329277     -0.3973219      1.2130035
C       3.4578360      0.8215395      1.9724392
C       2.3294895      1.6202549      1.7088792
C       2.1228587      2.8054286      2.4078229
C       3.0213307      3.2145281      3.3971274
C       4.1448323      2.4313627      3.6665502
C       4.3657316      1.2556690      2.9527599
H       0.8845041     -4.6969146     -2.2568259
H       1.2614478     -3.3589240     -3.3660170
H       1.7940204     -5.5815966     -4.4259473
H       2.9130671     -5.9505840     -3.0871810
H       3.2734093     -4.6104038     -4.2076616
H       0.1561823     -0.8263451     -2.1288136
H       4.1412615     -2.5072294     -0.2198255
H       4.7563307     -0.8042681      1.2815120
H       1.6514247      1.3149709      0.9085516
H       1.2709925      3.4399350      2.1577751
H       2.8556101      4.1469629      3.9392246
H       4.8591669      2.7442573      4.4305469
H       5.2552844      0.6540792      3.1559278
H      -0.1904470     -1.4895832      4.6231374
C      -0.3394371     -1.0269881      3.6525128
H      -1.6683285      0.7511349      3.8697130
H       2.0931087     -2.4550276      2.7409505
C      -1.0577834      0.0680316      3.2875203
H       1.0776458     -3.0744061      1.4006350
C       1.0745774     -2.7224996      2.4361906
N       0.2200872     -1.5420045      2.5032979
H      -6.3721534     -0.9363420      2.0532768
H      -6.7477527     -3.2528148      1.1951789
C      -5.6651558     -1.3711605      1.3447938
C      -5.8792730     -2.6846461      0.8591154
N      -0.9213714      0.1938882      1.9168890
H       0.6600055     -3.4880784      3.1009852
C      -0.1300542     -0.7893253      1.4650805
C      -4.5764470     -0.6381378      0.9306864
C      -4.9919422     -3.2362734     -0.0353844
H      -0.7645284      2.7310684      2.5170286
H      -4.4222919      0.3746034      1.3088269
H      -5.1457388     -4.2475241     -0.4187996
C      -1.5138579      1.2374090      1.1356732
C      -1.3361375      2.5639745      1.6039953
C      -3.6406688     -1.1841020      0.0072507
C      -3.8579770     -2.5066616     -0.4810565
H       0.2260266     -0.9459043      0.4419647
C      -2.4956338     -0.4577122     -0.4408764
C      -2.9279884     -3.0623332     -1.4057006
C      -2.2489405      0.9428307      0.0054964
C      -1.8758600      3.6102227      0.9055426
H      -3.0985863     -4.0749271     -1.7772740
H      -1.7405349      4.6349439      1.2558282
C      -1.8343649     -2.3538892     -1.8225740
C      -1.6149155     -1.0336478     -1.3391243
C      -2.8052955      2.0357625     -0.7377706
C      -2.6136446      3.3749148     -0.2868016
O      -0.5661583     -0.2981373     -1.7295246
H      -1.1052791     -2.7830633     -2.5094143
C      -3.5581262      1.8161789     -1.9250780
C      -3.1725966      4.4482878     -1.0327068
H      -3.7071067      0.7941529     -2.2759470
H      -3.0173215      5.4688166     -0.6771496
C      -4.0870553      2.8742458     -2.6252615
C      -3.8930799      4.2047407     -2.1767450
H      -4.6590496      2.6901364     -3.5357972
H      -4.3182283      5.0341874     -2.7436954
H       1.1104997      1.9153730     -2.8402786
C       3.9073196      1.4087200     -1.2036409
C       4.8148756      0.2684946     -1.4369699
C       2.7438376     -0.1975573     -2.3451580
C       1.5228486      1.9268916     -1.8219769
C       4.1294012     -0.6948730     -2.0997675
N       2.6598917      1.0384206     -1.7460122
O       1.8450122     -0.7346252     -2.9760326
O       4.1272752      2.4916500     -0.7093677
H       5.8566853      0.2821773     -1.1266182
H       1.8747122      2.9338984     -1.5668246
H       4.4813151     -1.6266861     -2.5342340
H       0.7230963      1.6233432     -1.1316357
          85

O       0.9076754     -2.5121272     -0.9242085
C       2.1151117     -2.7353452     -0.9763386
O       2.6164887     -3.6427996     -1.8430276
C       1.7007209     -4.1857623     -2.7882190
C       2.4647489     -5.1397822     -3.6776947
C       3.1346763     -2.0783396     -0.2151411
N       2.8129158     -1.0290569      0.5498233
C       3.7358217     -0.3983978      1.2154903
C       3.4601350      0.8204454      1.9743938
C       2.3298186      1.6169636      1.7122623
C       2.1227723      2.8030116      2.4094688
C       3.0227464      3.2154656      3.3960131
C       4.1480232      2.4344785      3.6643269
C       4.3692742      1.2578110      2.9522402
H       0.8810644     -4.6933234     -2.2566869
H       1.2632057     -3.3562122     -3.3647749
H       1.7910911     -5.5794165     -4.4252403
H       2.9066219     -5.9527348     -3.0849047
H       3.2729689     -4.6130045     -4.2036782
H       0.1552896     -0.8326897     -2.1261579
H       4.1458685     -2.5051236     -0.2244149
H       4.7592428     -0.8053376      1.2841800
H       1.6506226      1.3093197      0.9138432
H       1.2693957      3.4357194      2.1600500
H       2.8567926      4.1486618      3.9367161
H       4.8635779      2.7499068      4.4261485
H       5.2602951      0.6581111      3.1545743
H      -0.1907860     -1.4906369      4.6219006
C      -0.3398228     -1.0281625      3.6512249
H      -1.6676855      0.7507051      3.8684983
H       2.0913870     -2.4580299      2.7392025
C      -1.0576816      0.0671851      3.2862312
H       1.0756408     -3.0759978      1.3985693
C       1.0727177     -2.7247379      2.4343415
N       0.2189978     -1.5437170      2.5019173
H      -6.3722482     -0.9322071      2.0542874
H      -6.7500475     -3.2491253      1.1982822
C      -5.6658940     -1.3681957      1.3458818
C      -5.8812483     -2.6819201      0.8614223
N      -0.9216878      0.1926642      1.9155099
H       0.6576548     -3.4904068      3.0986832
C      -0.1309583     -0.7910140      1.4636780
C      -4.5768118     -0.6363501      0.9306515
C      -4.9946492     -3.2350298     -0.0328840
H      -0.7649710      2.7295222      2.5162790
H      -4.4218065      0.3766177      1.3078242
H      -5.1493415     -4.2465212     -0.4152995
C      -1.5138812      1.2362963      1.1342535
C      -1.3362963      2.5627244      1.6030214
C      -3.6418400     -1.1837834      0.0072645
C      -3.8602651     -2.5066931     -0.4795848
H       0.2250755     -0.9482219      0.4405480
C      -2.4965063     -0.4585088     -0.4421402
C      -2.9308321     -3.0641298     -1.4037277
C      -2.2487695      0.9420281      0.0038244
C      -1.8759070      3.6091999      0.9048458
H      -3.1020979     -4.0771166     -1.7739215
H      -1.7407381      4.6337983      1.2555466
C      -1.8369859     -2.3567691     -1.8218369
C      -1.6168179     -1.0358566     -1.3404614
C      -2.8050123      2.0352289     -0.7391348
C      -2.6134814      3.3742475     -0.2876841
O      -0.5682572     -0.3013719     -1.7336315
H      -1.1083687     -2.7870713     -2.5084989
C      -3.5579114      1.8160334     -1.9264654
C      -3.1725340      4.4478563     -1.0331647
H      -3.7068424      0.7941238     -2.2776959
H      -3.0173272      5.4682605     -0.6772214
C      -4.0869914      2.8743197     -2.6262062
C      -3.8930874      4.2046708     -2.1772314
H      -4.6590560      2.6904950     -3.5367547
H      -4.3183585      5.0342848     -2.7438441
H       1.1034743      1.9091273     -2.8321586
C       3.9062341      1.4117226     -1.2024734
C       4.8180927      0.2740579     -1.4400753
C       2.7480977     -0.1953448     -2.3476745
C       1.5199132      1.9229547     -1.8158441
C       4.1364339     -0.6870913     -2.1064800
N       2.6608366      1.0392818     -1.7448843
O       1.8505025     -0.7329818     -2.9791853
O       4.1245209      2.4931005     -0.7049717
H       5.8601840      0.2903360     -1.1308081
H       1.8681736      2.9315442     -1.5623421
H       4.4895746     -1.6216791     -2.5370967
H       0.7244237      1.6161964     -1.1223039
          85

O       0.9093088     -2.5086574     -0.9245581
C       2.1164763     -2.7337304     -0.9763174
O       2.6163245     -3.6432763     -1.8415384
C       1.7000001     -4.1842227     -2.7874525
C       2.4626419     -5.1400810     -3.6761337
C       3.1367914     -2.0768649     -0.2160382
N       2.8147791     -1.0285056      0.5501708
C       3.7375603     -0.3984950      1.2164255
C       3.4615686      0.8202046      1.9753023
C       2.3302444      1.6153947      1.7136105
C       2.1226290      2.8016456      2.4101943
C       3.0231117      3.2155385      3.3956706
C       4.1494228      2.4358675      3.6634826
C       4.3712181      1.2589467      2.9519821
H       0.8786808     -4.6898670     -2.2565801
H       1.2649619     -3.3536062     -3.3644371
H       1.7887652     -5.5775852     -4.4247797
H       2.9014806     -5.9545070     -3.0829839
H       3.2730869     -4.6152856     -4.2008112
H       0.1548693     -0.8357124     -2.1255104
H       4.1476399     -2.5048887     -0.2245444
H       4.7610357     -0.8053207      1.2849823
H       1.6508060      1.3065288      0.9159075
H       1.2684919      3.4334449      2.1610981
H       2.8567473      4.1489215      3.9359263
H       4.8653571      2.7525650      4.4244217
H       5.2630488      0.6602654      3.1537895
H      -0.1910872     -1.4914870      4.6211774
C      -0.3400980     -1.0289457      3.6505292
H      -1.6675124      0.7502303      3.8679976
H       2.0906489     -2.4593995      2.7381662
C      -1.0577207      0.0665982      3.2856394
H       1.0746879     -3.0769076      1.3975234
C       1.0718984     -2.7258195      2.4333524
N       0.2184641     -1.5446062      2.5011451
H      -6.3722963     -0.9299300      2.0548529
H      -6.7514670     -3.2469628      1.1996498
C      -5.6662956     -1.3665339      1.3464722
C      -5.8824215     -2.6803112      0.8624955
N      -0.9218505      0.1920721      1.9149023
H       0.6567118     -3.4915069      3.0975829
C      -0.1313507     -0.7917430      1.4629798
C      -4.5769218     -0.6353699      0.9307789
C      -4.9962083     -3.2341966     -0.0317087
H      -0.7652930      2.7288028      2.5160509
H      -4.4213989      0.3776607      1.3075649
H      -5.1514658     -4.2457601     -0.4137021
C      -1.5139011      1.2357831      1.1336502
C      -1.3364092      2.5621415      1.6026422
C      -3.6423883     -1.1835484      0.0073624
C      -3.8615110     -2.5065832     -0.4788373
H       0.2247900     -0.9489767      0.4398621
C      -2.4968607     -0.4588769     -0.4427134
C      -2.9324093     -3.0649122     -1.4027748
C      -2.2486258      0.9416597      0.0030569
C      -1.8759128      3.6087206      0.9045484
H      -3.1040936     -4.0780524     -1.7723550
H      -1.7408204      4.6332637      1.2554374
C      -1.8383994     -2.3581446     -1.8215068
C      -1.6177364     -1.0369308     -1.3411617
C      -2.8048052      2.0349762     -0.7397765
C      -2.6133454      3.3739321     -0.2880948
O      -0.5692189     -0.3029835     -1.7357619
H      -1.1101399     -2.7890308     -2.5082158
C      -3.5577080      1.8159545     -1.9271340
C      -3.1724419      4.4476471     -1.0333849
H      -3.7066028      0.7941017     -2.2785447
H      -3.0172840      5.4679938     -0.6772573
C      -4.0868554      2.8743400     -2.6266741
C      -3.8930108      4.2046237     -2.1774742
H      -4.6589316      2.6906457     -3.5372411
H      -4.3183422      5.0343123     -2.7439317
H       1.0989247      1.9037844     -2.8283162
C       3.9064167      1.4135497     -1.2011188
C       4.8197378      0.2771787     -1.4386186
C       2.7508339     -0.1945720     -2.3478362
C       1.5187185      1.9205827     -1.8133138
C       4.1392512     -0.6850445     -2.1050622
N       2.6618448      1.0396209     -1.7444649
O       1.8544014     -0.7327975     -2.9803898
O       4.1227029      2.4950056     -0.7028715
H       5.8618013      0.2947402     -1.1292633
H       1.8654067      2.9305223     -1.5626579
H       4.4943645     -1.6185777     -2.5367212
H       0.7259940      1.6131598     -1.1167416
