          85

O       0.6173203     -2.4648149     -0.0862590
C       1.5505200     -2.5741637     -0.8480968
O       1.5972886     -3.4961999     -1.8010479
C       0.4037536     -4.2578170     -2.0370535
C       0.6890923     -5.2057843     -3.1760934
C       2.7755703     -1.6942580     -0.9137021
N       2.9586099     -0.8797004      0.2377188
C       4.1394821     -0.3976239      0.3529065
C       4.4427112      0.7773357      1.1887366
C       3.4339288      1.4226952      1.9159231
C       3.7124821      2.5724554      2.6466182
C       5.0058310      3.1040373      2.6433226
C       6.0103891      2.4844877      1.8992258
C       5.7296899      1.3270848      1.1734555
H       0.1306327     -4.7864370     -1.1118648
H      -0.4002419     -3.5477188     -2.2761443
H      -0.2119495     -5.7877245     -3.4108074
H       1.4961408     -5.9021934     -2.9107266
H       0.9870206     -4.6479852     -4.0743263
H      -0.8776973     -0.7729653     -1.8819612
H       3.6397164     -2.3412833     -1.1647439
H       4.9905315     -0.8121502     -0.2096411
H       2.4241879      1.0145987      1.8701495
H       2.9192105      3.0666884      3.2108416
H       5.2255954      4.0102578      3.2103758
H       7.0152707      2.9092087      1.8786960
H       6.5093107      0.8514610      0.5744268
H       0.3572843      0.8804690      4.4713498
C       0.0548695      0.8337319      3.4298321
H      -1.2123202      2.6045708      2.9459104
H       2.2939942     -0.9897754      3.1232721
C      -0.7064153      1.6804287      2.6830764
H       1.2418076     -2.0603274      2.1496180
C       1.2654969     -1.3426065      2.9747475
N       0.4170770     -0.2127212      2.6066185
H      -4.7345834      0.7094359      3.9394963
H      -5.1794668     -1.6625223      4.5980370
C      -4.4112295     -0.1039717      3.2877551
C      -4.6692290     -1.4447016      3.6587520
N      -0.7914167      1.1288428      1.4170537
H       0.8773025     -1.7896970      3.8966652
C      -0.0892850     -0.0106068      1.3957505
C      -3.7655805      0.1874324      2.1074164
C      -4.2864364     -2.4657108      2.8210526
H      -0.7149211      3.6396519      0.6330372
H      -3.5994933      1.2298976      1.8326144
H      -4.4929145     -3.5060552      3.0820553
C      -1.5377458      1.6562342      0.3136831
C      -1.3757485      3.0290798      0.0164874
C      -3.3299469     -0.8475808      1.2310445
C      -3.6193453     -2.1951492      1.5971005
H       0.0735308     -0.6598251      0.5363393
C      -2.6317418     -0.5824778      0.0028815
C      -3.2502496     -3.2448563      0.7090229
C      -2.3740667      0.8269615     -0.4099905
C      -2.0210988      3.5663671     -1.0649003
H      -3.4931660     -4.2743467      0.9801296
H      -1.8904828      4.6200843     -1.3168083
C      -2.5963066     -2.9750576     -0.4598084
C      -2.2511844     -1.6389607     -0.8124742
C      -3.0498579      1.3838549     -1.5466140
C      -2.8538314      2.7568607     -1.8825452
O      -1.5796751     -1.4687800     -1.9658281
H      -2.3055498     -3.7740557     -1.1410967
C      -3.9314534      0.6094841     -2.3538715
C      -3.5107882      3.3007169     -3.0208486
H      -4.1078407     -0.4346481     -2.0977030
H      -3.3428910      4.3507068     -3.2682833
C      -4.5550226      1.1636869     -3.4456817
C      -4.3386383      2.5215855     -3.7904439
H      -5.2239998      0.5532060     -4.0538032
H      -4.8363240      2.9448263     -4.6641454
H       1.3073165      2.3621409      0.1395393
C       3.7352215      1.3688255     -1.8860243
C       3.8643788      0.0875970     -2.4163550
C       1.6324650      0.3759623     -1.7261303
C       1.7984513      2.6474458     -0.8030238
C       2.6266829     -0.6881052     -2.1768122
N       2.3268056      1.4831817     -1.4560142
O       0.4103082      0.2479157     -1.5736834
O       4.4813604      2.3388044     -1.7275560
H       4.8026291     -0.3211723     -2.7827408
H       1.0649966      3.1732878     -1.4326122
H       2.2232048     -1.2866267     -3.0213095
H       2.6503615      3.3045595     -0.5877177
          85

O       0.6120608     -2.4639560     -0.0868185
C       1.5488340     -2.5751710     -0.8442813
O       1.5977543     -3.4989126     -1.7953234
C       0.4027693     -4.2557579     -2.0372147
C       0.6896233     -5.2038461     -3.1756944
C       2.7752807     -1.6963089     -0.9104368
N       2.9605442     -0.8818370      0.2402053
C       4.1413403     -0.3982081      0.3526890
C       4.4438196      0.7783751      1.1865157
C       3.4346447      1.4229176      1.9139540
C       3.7125580      2.5719537      2.6460305
C       5.0057674      3.1038615      2.6439552
C       6.0105202      2.4857367      1.8989418
C       5.7302982      1.3293153      1.1713617
H       0.1236294     -4.7843106     -1.1138300
H      -0.3977795     -3.5426831     -2.2789811
H      -0.2116517     -5.7845051     -3.4126659
H       1.4949416     -5.9014432     -2.9082008
H       0.9907123     -4.6465640     -4.0731895
H      -0.8790330     -0.7730881     -1.8835448
H       3.6382404     -2.3450101     -1.1609207
H       4.9916501     -0.8120081     -0.2115627
H       2.4252574      1.0139334      1.8682593
H       2.9189846      3.0650414      3.2108391
H       5.2252712      4.0091065      3.2126601
H       7.0153414      2.9106537      1.8793091
H       6.5102890      0.8546922      0.5720279
H       0.3576073      0.8796953      4.4709286
C       0.0551628      0.8330970      3.4294131
H      -1.2118724      2.6041264      2.9457402
H       2.2940796     -0.9913351      3.1215537
C      -0.7060845      1.6799557      2.6827881
H       1.2403005     -2.0617917      2.1495863
C       1.2652079     -1.3435360      2.9741936
N       0.4171823     -0.2133388      2.6060939
H      -4.7344308      0.7094548      3.9394979
H      -5.1794156     -1.6624854      4.5980498
C      -4.4111058     -0.1039742      3.2877691
C      -4.6691599     -1.4446893      3.6587685
N      -0.7912624      1.1284612      1.4167620
H       0.8774331     -1.7898118      3.8966789
C      -0.0892140     -0.0109973      1.3952618
C      -3.7654310      0.1873784      2.1074277
C      -4.2863887     -2.4657302      2.8210875
H      -0.7149411      3.6393593      0.6331097
H      -3.5992985      1.2298319      1.8325983
H      -4.4929025     -3.5060597      3.0821227
C      -1.5375795      1.6559209      0.3134381
C      -1.3757096      3.0288282      0.0164577
C      -3.3299010     -0.8476645      1.2310487
C      -3.6193099     -2.1952279      1.5971130
H       0.0732190     -0.6602854      0.5357876
C      -2.6319311     -0.5826116      0.0027393
C      -3.2502435     -3.2449714      0.7090318
C      -2.3740064      0.8267400     -0.4102206
C      -2.0210769      3.5662181     -1.0648599
H      -3.4929740     -4.2744671      0.9802896
H      -1.8905250      4.6199795     -1.3166142
C      -2.5966014     -2.9751876     -0.4599795
C      -2.2518231     -1.6390493     -0.8128037
C      -3.0498270      1.3837562     -1.5467755
C      -2.8537476      2.7567672     -1.8826287
O      -1.5811656     -1.4686626     -1.9666551
H      -2.3058024     -3.7741270     -1.1413217
C      -3.9315487      0.6094983     -2.3539914
C      -3.5106542      3.3007021     -3.0209224
H      -4.1080381     -0.4346140     -2.0978353
H      -3.3426952      4.3506905     -3.2683197
C      -4.5550669      1.1637678     -3.4457936
C      -4.3385390      2.5216407     -3.7905543
H      -5.2241154      0.5533576     -4.0539070
H      -4.8361710      2.9449311     -4.6642624
H       1.3071257      2.3579441      0.1440874
C       3.7352236      1.3696975     -1.8848395
C       3.8633540      0.0912294     -2.4225380
C       1.6333937      0.3762822     -1.7293044
C       1.7985216      2.6450024     -0.7977853
C       2.6276575     -0.6868662     -2.1815805
N       2.3275930      1.4822853     -1.4531192
O       0.4111458      0.2481330     -1.5788740
O       4.4819895      2.3385336     -1.7232707
H       4.7996693     -0.3115584     -2.7992315
H       1.0651980      3.1718172     -1.4267215
H       2.2234984     -1.2832204     -3.0278660
H       2.6501027      3.3020140     -0.5808242
          85

O       0.5961060     -2.4628357     -0.0871321
C       1.5445042     -2.5779498     -0.8314060
O       1.5991134     -3.5045021     -1.7802855
C       0.4005542     -4.2489497     -2.0383441
C       0.6910451     -5.1982499     -3.1747496
C       2.7743602     -1.7040796     -0.8969432
N       2.9677310     -0.8899168      0.2492035
C       4.1474246     -0.3980339      0.3504614
C       4.4470922      0.7820843      1.1792830
C       3.4366912      1.4236571      1.9080715
C       3.7127628      2.5702795      2.6445327
C       5.0054741      3.1033891      2.6461231
C       6.0109657      2.4894582      1.8985856
C       5.7322736      1.3363060      1.1653088
H       0.1054611     -4.7768874     -1.1196666
H      -0.3909569     -3.5283206     -2.2874100
H      -0.2110325     -5.7757413     -3.4164285
H       1.4918737     -5.8987970     -2.9015421
H       0.9997294     -4.6433836     -4.0711639
H      -0.8831989     -0.7738161     -1.8881565
H       3.6300005     -2.3396646     -1.1673934
H       4.9947794     -0.8069668     -0.2220759
H       2.4283293      1.0121297      1.8623786
H       2.9182702      3.0598083      3.2111882
H       5.2240585      4.0057529      3.2197075
H       7.0156706      2.9148457      1.8819932
H       6.5134182      0.8646492      0.5651416
H       0.3586097      0.8774482      4.4696877
C       0.0560418      0.8312051      3.4281919
H      -1.2104387      2.6028457      2.9451711
H       2.2942980     -0.9957308      3.1167586
C      -0.7050395      1.6785546      2.6819124
H       1.2363043     -2.0657788      2.1491720
C       1.2644559     -1.3462863      2.9725437
N       0.4174795     -0.2152128      2.6046128
H      -4.7339844      0.7095208      3.9394900
H      -5.1792793     -1.6623546      4.5980988
C      -4.4107485     -0.1039777      3.2878048
C      -4.6689701     -1.4446413      3.6588264
N      -0.7907232      1.1272999      1.4158743
H       0.8777191     -1.7904584      3.8964779
C      -0.0890108     -0.0122948      1.3938944
C      -3.7649817      0.1872158      2.1074574
C      -4.2862611     -2.4657798      2.8212087
H      -0.7151001      3.6385179      0.6333911
H      -3.5987025      1.2296357      1.8325575
H      -4.4928740     -3.5060656      3.0823405
C      -1.5370538      1.6549647      0.3127221
C      -1.3756291      3.0280794      0.0163923
C      -3.3297439     -0.8479193      1.2310720
C      -3.6192124     -2.1954581      1.5971760
H       0.0721457     -0.6622115      0.5344769
C      -2.6324405     -0.5830554      0.0023195
C      -3.2502344     -3.2453547      0.7091448
C      -2.3737874      0.8260535     -0.4109187
C      -2.0210209      3.5657803     -1.0647358
H      -3.4924278     -4.2748480      0.9808967
H      -1.8906705      4.6196804     -1.3160147
C      -2.5974235     -2.9756745     -0.4603584
C      -2.2536844     -1.6394423     -0.8136716
C      -3.0497357      1.3834674     -1.5472453
C      -2.8535081      2.7564995     -1.8828784
O      -1.5856483     -1.4686289     -1.9691180
H      -2.3064074     -3.7744621     -1.1417930
C      -3.9318314      0.6095438     -2.3543357
C      -3.5102626      3.3006662     -3.0211472
H      -4.1086192     -0.4345100     -2.0982124
H      -3.3421272      4.3506512     -3.2684337
C      -4.5551894      1.1640077     -3.4461229
C      -4.3382396      2.5218016     -3.7908897
H      -5.2244422      0.5538002     -4.0542126
H      -4.8357094      2.9452282     -4.6646239
H       1.3064839      2.3458639      0.1563777
C       3.7334590      1.3743172     -1.8827648
C       3.8596143      0.0997953     -2.4394853
C       1.6360769      0.3772602     -1.7394163
C       1.7978274      2.6393927     -0.7833682
C       2.6312413     -0.6823391     -2.1953881
N       2.3293873      1.4817182     -1.4466869
O       0.4142475      0.2480784     -1.5924132
O       4.4837603      2.3377254     -1.7126491
H       4.7940725     -0.2922870     -2.8348713
H       1.0643934      3.1692672     -1.4095356
H       2.2377920     -1.3071931     -3.0006864
H       2.6481862      3.2962377     -0.5611695
          85

O       0.5831951     -2.4626695     -0.0879782
C       1.5432034     -2.5845475     -0.8175310
O       1.5997901     -3.5059164     -1.7728429
C       0.4001999     -4.2443817     -2.0393131
C       0.6915688     -5.1954591     -3.1741339
C       2.7758090     -1.7206666     -0.8706794
N       2.9725170     -0.8983279      0.2589827
C       4.1512344     -0.3981813      0.3493261
C       4.4479901      0.7848034      1.1735358
C       3.4375261      1.4243033      1.9047015
C       3.7130328      2.5693640      2.6438831
C       5.0053857      3.1034131      2.6473843
C       6.0110863      2.4910469      1.8988883
C       5.7328523      1.3400278      1.1620985
H       0.0974048     -4.7718916     -1.1228478
H      -0.3877251     -3.5210271     -2.2919102
H      -0.2110969     -5.7718347     -3.4164033
H       1.4906631     -5.8970435     -2.8984402
H       1.0027449     -4.6428672     -4.0711150
H      -0.8845628     -0.7753535     -1.8902268
H       3.6354853     -2.3519497     -1.1548979
H       4.9978546     -0.8093438     -0.2227694
H       2.4296896      1.0113677      1.8600713
H       2.9181546      3.0565501      3.2120593
H       5.2235736      4.0042232      3.2235396
H       7.0160924      2.9158396      1.8844334
H       6.5149988      0.8694602      0.5623756
H       0.3590885      0.8764321      4.4690900
C       0.0564428      0.8302587      3.4276142
H      -1.2097049      2.6021751      2.9446938
H       2.2943482     -0.9979028      3.1144989
C      -0.7044880      1.6777979      2.6813939
H       1.2345524     -2.0672859      2.1482576
C       1.2641126     -1.3477273      2.9715014
N       0.4175770     -0.2162064      2.6039676
H      -4.7337696      0.7095568      3.9394981
H      -5.1792010     -1.6622935      4.5981450
C      -4.4105916     -0.1039810      3.2878326
C      -4.6688852     -1.4446106      3.6588678
N      -0.7903373      1.1265640      1.4153515
H       0.8776962     -1.7914771      3.8957773
C      -0.0888850     -0.0132116      1.3932550
C      -3.7647632      0.1871225      2.1074794
C      -4.2862014     -2.4657920      2.8212673
H      -0.7153156      3.6381074      0.6336237
H      -3.5983744      1.2295264      1.8325616
H      -4.4928452     -3.5060597      3.0824517
C      -1.5367145      1.6544023      0.3123574
C      -1.3756058      3.0276710      0.0163680
C      -3.3296630     -0.8480499      1.2311020
C      -3.6191912     -2.1955703      1.5972066
H       0.0717574     -0.6639338      0.5341826
C      -2.6326780     -0.5833308      0.0021178
C      -3.2502679     -3.2455860      0.7092245
C      -2.3736144      0.8256536     -0.4112970
C      -2.0209615      3.5655604     -1.0646840
H      -3.4921554     -4.2750659      0.9813056
H      -1.8907313      4.6195454     -1.3156788
C      -2.5977858     -2.9760008     -0.4604543
C      -2.2545828     -1.6397304     -0.8139902
C      -3.0496863      1.3833439     -1.5474684
C      -2.8533849      2.7563826     -1.8830210
O      -1.5880863     -1.4686656     -1.9703770
H      -2.3062897     -3.7746802     -1.1418098
C      -3.9319712      0.6095873     -2.3544824
C      -3.5100690      3.3006550     -3.0212835
H      -4.1088769     -0.4344340     -2.0983448
H      -3.3418654      4.3506417     -3.2685195
C      -4.5552328      1.1641217     -3.4462894
C      -4.3380759      2.5218680     -3.7910854
H      -5.2245771      0.5539990     -4.0543631
H      -4.8354636      2.9453464     -4.6648421
H       1.3056704      2.3419944      0.1637955
C       3.7306029      1.3785521     -1.8796489
C       3.8564701      0.1076518     -2.4534269
C       1.6379694      0.3805744     -1.7518084
C       1.7969534      2.6382157     -0.7750087
C       2.6335789     -0.6702723     -2.2221361
N       2.3309987      1.4832024     -1.4422222
O       0.4181778      0.2480774     -1.5985762
O       4.4853372      2.3362964     -1.7071345
H       4.7862797     -0.2698867     -2.8713629
H       1.0630901      3.1677170     -1.4009591
H       2.2410833     -1.3095619     -3.0271465
H       2.6454112      3.2966622     -0.5503640
          85

O       0.5740333     -2.4621013     -0.0887051
C       1.5435712     -2.5900231     -0.8064934
O       1.6002426     -3.5061883     -1.7694364
C       0.4004267     -4.2413603     -2.0399065
C       0.6917018     -5.1939568     -3.1737333
C       2.7779081     -1.7420561     -0.8395574
N       2.9750841     -0.9047248      0.2653700
C       4.1539127     -0.3978271      0.3483506
C       4.4481726      0.7863092      1.1694716
C       3.4379370      1.4246631      1.9028475
C       3.7132672      2.5687938      2.6435366
C       5.0053623      3.1035723      2.6481772
C       6.0110841      2.4918223      1.8991859
C       5.7331062      1.3421157      1.1603856
H       0.0937663     -4.7686630     -1.1244789
H      -0.3864102     -3.5174408     -2.2943088
H      -0.2113765     -5.7697819     -3.4159055
H       1.4899906     -5.8960592     -2.8969314
H       1.0039223     -4.6429097     -4.0713421
H      -0.8850443     -0.7770692     -1.8910543
H       3.6392528     -2.3531028     -1.1526947
H       5.0007576     -0.8139457     -0.2198272
H       2.4303648      1.0109552      1.8592790
H       2.9181364      3.0545170      3.2126935
H       5.2233361      4.0035167      3.2257396
H       7.0163680      2.9160929      1.8860152
H       6.5159962      0.8720080      0.5612314
H       0.3593758      0.8758461      4.4687366
C       0.0566541      0.8296828      3.4272836
H      -1.2092694      2.6017654      2.9443862
H       2.2943301     -0.9990739      3.1132946
C      -0.7041575      1.6773322      2.6810860
H       1.2336433     -2.0678585      2.1472236
C       1.2639426     -1.3486020      2.9707626
N       0.4176039     -0.2168064      2.6036054
H      -4.7336360      0.7095760      3.9395069
H      -5.1791511     -1.6622598      4.5981795
C      -4.4105030     -0.1039883      3.2878503
C      -4.6688366     -1.4445918      3.6588964
N      -0.7900607      1.1260836      1.4150096
H       0.8775823     -1.7923975      3.8950498
C      -0.0888078     -0.0139075      1.3928686
C      -3.7646334      0.1870567      2.1074898
C      -4.2861590     -2.4657963      2.8212996
H      -0.7154734      3.6378787      0.6337771
H      -3.5981609      1.2294542      1.8325784
H      -4.4928106     -3.5060564      3.0825153
C      -1.5365025      1.6540513      0.3121645
C      -1.3755810      3.0274270      0.0163350
C      -3.3296092     -0.8481295      1.2311208
C      -3.6191785     -2.1956358      1.5972261
H       0.0716312     -0.6658204      0.5343457
C      -2.6328101     -0.5835214      0.0019927
C      -3.2503042     -3.2457340      0.7092688
C      -2.3735052      0.8254023     -0.4115183
C      -2.0209039      3.5654398     -1.0646774
H      -3.4919930     -4.2752011      0.9815821
H      -1.8907566      4.6194792     -1.3155015
C      -2.5979926     -2.9762284     -0.4604829
C      -2.2550828     -1.6399562     -0.8141207
C      -3.0496638      1.3832854     -1.5475938
C      -2.8533158      2.7563244     -1.8831144
O      -1.5895945     -1.4687463     -1.9711143
H      -2.3060162     -3.7748122     -1.1417337
C      -3.9320571      0.6096230     -2.3545614
C      -3.5099526      3.3006530     -3.0213788
H      -4.1090185     -0.4343742     -2.0983902
H      -3.3417184      4.3506427     -3.2685871
C      -4.5552506      1.1641891     -3.4463935
C      -4.3379677      2.5219030     -3.7912191
H      -5.2246476      0.5541118     -4.0544546
H      -4.8353050      2.9454056     -4.6649939
H       1.3051393      2.3404864      0.1681312
C       3.7272316      1.3827990     -1.8758858
C       3.8536658      0.1118582     -2.4625912
C       1.6392525      0.3833602     -1.7612443
C       1.7962941      2.6383759     -0.7700529
C       2.6345773     -0.6520904     -2.2549198
N       2.3326376      1.4852791     -1.4391579
O       0.4214631      0.2481665     -1.6014590
O       4.4863308      2.3345299     -1.7045750
H       4.7802380     -0.2552522     -2.8963151
H       1.0621289      3.1667418     -1.3965370
H       2.2499178     -1.3218850     -3.0330450
H       2.6427437      3.2986851     -0.5435560
          85

O       0.5664569     -2.4613140     -0.0893791
C       1.5444069     -2.5944169     -0.7969431
O       1.6007020     -3.5061575     -1.7672922
C       0.4008648     -4.2388221     -2.0403344
C       0.6916644     -5.1928391     -3.1734179
C       2.7800335     -1.7646427     -0.8066979
N       2.9768692     -0.9102041      0.2701123
C       4.1562355     -0.3972112      0.3474047
C       4.4482106      0.7872851      1.1660881
C       3.4382343      1.4248824      1.9014538
C       3.7134576      2.5682788      2.6432414
C       5.0053379      3.1036877      2.6488345
C       6.0110500      2.4923505      1.8994202
C       5.7333320      1.3436933      1.1590991
H       0.0913575     -4.7660311     -1.1256527
H      -0.3856140     -3.5149719     -2.2960743
H      -0.2118200     -5.7681977     -3.4153342
H       1.4893633     -5.8953949     -2.8959495
H       1.0045734     -4.6430937     -4.0716334
H      -0.8853836     -0.7788376     -1.8914879
H       3.6438493     -2.3542197     -1.1514711
H       5.0035216     -0.8186851     -0.2160875
H       2.4308565      1.0105818      1.8588619
H       2.9180953      3.0528373      3.2131661
H       5.2231431      4.0029453      3.2274956
H       7.0165672      2.9162177      1.8872543
H       6.5168683      0.8738975      0.5604826
H       0.3596086      0.8753020      4.4684320
C       0.0568121      0.8291566      3.4270015
H      -1.2088940      2.6014015      2.9441454
H       2.2942727     -0.9999612      3.1124694
C      -0.7038767      1.6769207      2.6808364
H       1.2330238     -2.0681844      2.1460884
C       1.2638233     -1.3493559      2.9700845
N       0.4176085     -0.2173324      2.6032855
H      -4.7335169      0.7095878      3.9395117
H      -5.1791089     -1.6622331      4.5982110
C      -4.4104257     -0.1040013      3.2878628
C      -4.6687951     -1.4445791      3.6589222
N      -0.7898042      1.1256709      1.4147023
H       0.8774048     -1.7933573      3.8942601
C      -0.0887414     -0.0145618      1.3925173
C      -3.7645182      0.1869923      2.1074950
C      -4.2861159     -2.4658029      2.8213288
H      -0.7155905      3.6376915      0.6338902
H      -3.5979689      1.2293865      1.8325989
H      -4.4927683     -3.5060585      3.0825709
C      -1.5363236      1.6537584      0.3120118
C      -1.3755402      3.0272255      0.0162837
C      -3.3295572     -0.8482014      1.2311326
C      -3.6191620     -2.1956939      1.5972467
H       0.0715398     -0.6679151      0.5346704
C      -2.6329145     -0.5836974      0.0018778
C      -3.2503437     -3.2458666      0.7093080
C      -2.3734175      0.8251896     -0.4117012
C      -2.0208390      3.5653456     -1.0646943
H      -3.4918625     -4.2753203      0.9818320
H      -1.8907620      4.6194295     -1.3153842
C      -2.5981731     -2.9764422     -0.4604974
C      -2.2554898     -1.6401842     -0.8142077
C      -3.0496532      1.3832449     -1.5476961
C      -2.8532605      2.7562822     -1.8831989
O      -1.5908559     -1.4688809     -1.9717166
H      -2.3057255     -3.7749334     -1.1416405
C      -3.9321369      0.6096597     -2.3546247
C      -3.5098488      3.3006539     -3.0214707
H      -4.1091472     -0.4343126     -2.0984092
H      -3.3415884      4.3506461     -3.2686589
C      -4.5552596      1.1642476     -3.4464888
C      -4.3378626      2.5219308     -3.7913476
H      -5.2246997      0.5542073     -4.0545399
H      -4.8351488      2.9454492     -4.6651451
H       1.3047659      2.3393162      0.1713477
C       3.7236122      1.3871860     -1.8718668
C       3.8508817      0.1142889     -2.4698136
C       1.6403844      0.3856087     -1.7690648
C       1.7957243      2.6388654     -0.7662317
C       2.6350239     -0.6319132     -2.2882580
N       2.3343673      1.4875994     -1.4368027
O       0.4245049      0.2483671     -1.6033746
O       4.4871168      2.3326290     -1.7031429
H       4.7751285     -0.2441242     -2.9152060
H       1.0613003      3.1660370     -1.3933309
H       2.2574968     -1.3332663     -3.0410633
H       2.6401132      3.3010635     -0.5378795
          85

O       0.5593641     -2.4603432     -0.0899704
C       1.5453124     -2.5979225     -0.7880794
O       1.6012877     -3.5059994     -1.7655300
C       0.4015104     -4.2363311     -2.0407366
C       0.6914358     -5.1918430     -3.1731637
C       2.7821868     -1.7879924     -0.7729725
N       2.9781725     -0.9149924      0.2741426
C       4.1584444     -0.3963897      0.3465759
C       4.4483193      0.7880244      1.1629083
C       3.4384918      1.4249575      1.9000781
C       3.7135651      2.5676129      2.6428713
C       5.0052588      3.1035941      2.6494385
C       6.0110224      2.4927411      1.8995680
C       5.7336719      1.3451284      1.1578037
H       0.0893037     -4.7634692     -1.1267558
H      -0.3847911     -3.5127139     -2.2977353
H      -0.2126267     -5.7665797     -3.4145779
H       1.4884912     -5.8950117     -2.8952628
H       1.0048780     -4.6434741     -4.0720865
H      -0.8857920     -0.7807650     -1.8917836
H       3.6468231     -2.3529795     -1.1516100
H       5.0060046     -0.8230875     -0.2124886
H       2.4313442      1.0100010      1.8583504
H       2.9179694      3.0510728      3.2135139
H       5.2228840      4.0021492      3.2292136
H       7.0167287      2.9163282      1.8884114
H       6.5178019      0.8756309      0.5596551
H       0.3598192      0.8745983      4.4680984
C       0.0569568      0.8285195      3.4266861
H      -1.2084713      2.6009842      2.9439332
H       2.2941559     -1.0007968      3.1119002
C      -0.7035716      1.6764528      2.6805824
H       1.2326596     -2.0684375      2.1447405
C       1.2637233     -1.3501712      2.9693443
N       0.4175994     -0.2179351      2.6028997
H      -4.7333859      0.7095919      3.9395080
H      -5.1790696     -1.6622090      4.5982441
C      -4.4103374     -0.1040264      3.2878717
C      -4.6687507     -1.4445746      3.6589515
N      -0.7895144      1.1252519      1.4143594
H       0.8770877     -1.7945519      3.8932592
C      -0.0886675     -0.0152574      1.3920988
C      -3.7643845      0.1869134      2.1074982
C      -4.2860616     -2.4658184      2.8213677
H      -0.7156582      3.6374947      0.6339590
H      -3.5977551      1.2293059      1.8326243
H      -4.4927106     -3.5060705      3.0826350
C      -1.5361319      1.6534658      0.3118424
C      -1.3754670      3.0270212      0.0161963
C      -3.3294915     -0.8482857      1.2311366
C      -3.6191347     -2.1957613      1.5972763
H       0.0714247     -0.6702592      0.5350042
C      -2.6330132     -0.5838923      0.0017423
C      -3.2503941     -3.2460183      0.7093621
C      -2.3733306      0.8249734     -0.4118936
C      -2.0207535      3.5652530     -1.0647393
H      -3.4917434     -4.2754541      0.9821114
H      -1.8907370      4.6193778     -1.3153066
C      -2.5983832     -2.9766899     -0.4605079
C      -2.2559139     -1.6404586     -0.8142990
C      -3.0496541      1.3832109     -1.5477993
C      -2.8532050      2.7562445     -1.8832926
O      -1.5921091     -1.4691162     -1.9723221
H      -2.3054611     -3.7750873     -1.1415420
C      -3.9322357      0.6097082     -2.3546875
C      -3.5097292      3.3006569     -3.0215813
H      -4.1093131     -0.4342331     -2.0984154
H      -3.3414308      4.3506484     -3.2687550
C      -4.5552610      1.1643128     -3.4466015
C      -4.3377296      2.5219590     -3.7915054
H      -5.2247404      0.5543098     -4.0546468
H      -4.8349415      2.9454877     -4.6653414
H       1.3045289      2.3378132      0.1741600
C       3.7198663      1.3919896     -1.8676739
C       3.8480776      0.1158286     -2.4760450
C       1.6415797      0.3875122     -1.7757138
C       1.7951291      2.6395192     -0.7627102
C       2.6351427     -0.6110509     -2.3213532
N       2.3362066      1.4902739     -1.4349467
O       0.4274851      0.2487266     -1.6049809
O       4.4880261      2.3307719     -1.7023298
H       4.7710154     -0.2351441     -2.9298646
H       1.0604031      3.1656292     -1.3902174
H       2.2659928     -1.3452882     -3.0435514
H       2.6373856      3.3035813     -0.5322542
          85

O       0.5518745     -2.4589485     -0.0904994
C       1.5461983     -2.6008518     -0.7786261
O       1.6023542     -3.5053748     -1.7634196
C       0.4026595     -4.2333948     -2.0414705
C       0.6906201     -5.1910021     -3.1731778
C       2.7846321     -1.8113690     -0.7374633
N       2.9792626     -0.9189670      0.2794632
C       4.1607159     -0.3950695      0.3459383
C       4.4487800      0.7889700      1.1591869
C       3.4386792      1.4245866      1.8980234
C       3.7133595      2.5661615      2.6421184
C       5.0049156      3.1026222      2.6498771
C       6.0110395      2.4927823      1.8994797
C       5.7343748      1.3465934      1.1557808
H       0.0872893     -4.7603326     -1.1282764
H      -0.3832685     -3.5098442     -2.2998878
H      -0.2147829     -5.7644083     -3.4130259
H       1.4865506     -5.8954821     -2.8951877
H       1.0042590     -4.6448104     -4.0734129
H      -0.8864959     -0.7831113     -1.8922632
H       3.6495086     -2.3525934     -1.1477323
H       5.0077301     -0.8267908     -0.2099783
H       2.4319972      1.0084802      1.8568023
H       2.9175401      3.0483566      3.2136303
H       5.2222471      4.0002252      3.2311781
H       7.0168440      2.9163240      1.8898251
H       6.5189984      0.8774547      0.5579278
H       0.3600135      0.8732687      4.4676104
C       0.0571132      0.8274214      3.4262014
H      -1.2077918      2.6003228      2.9437237
H       2.2938833     -1.0017245      3.1118362
C      -0.7031076      1.6757166      2.6802329
H       1.2329778     -2.0686742      2.1427726
C       1.2636596     -1.3513203      2.9683095
N       0.4175662     -0.2189122      2.6022318
H      -4.7331994      0.7095722      3.9394854
H      -5.1790424     -1.6621905      4.5982880
C      -4.4102024     -0.1040916      3.2878775
C      -4.6686948     -1.4445958      3.6589996
N      -0.7890650      1.1247311      1.4138428
H       0.8763634     -1.7965907      3.8915329
C      -0.0885534     -0.0161272      1.3914082
C      -3.7641728      0.1867809      2.1075049
C      -4.2859708     -2.4658644      2.8214474
H      -0.7155697      3.6372044      0.6338938
H      -3.5974393      1.2291731      1.8326687
H      -4.4926102     -3.5061142      3.0827395
C      -1.5358368      1.6531054      0.3115497
C      -1.3752835      3.0267535      0.0159939
C      -3.3293784     -0.8484213      1.2311237
C      -3.6190764     -2.1958670      1.5973417
H       0.0711902     -0.6728387      0.5350470
C      -2.6331205     -0.5841635      0.0015239
C      -3.2504774     -3.2462513      0.7094840
C      -2.3732214      0.8247071     -0.4121624
C      -2.0206014      3.5651367     -1.0648546
H      -3.4916317     -4.2756553      0.9825306
H      -1.8906208      4.6192996     -1.3153000
C      -2.5987324     -2.9770633     -0.4605114
C      -2.2565053     -1.6408846     -0.8144612
C      -3.0496886      1.3831835     -1.5479258
C      -2.8531384      2.7562099     -1.8834243
O      -1.5936223     -1.4696840     -1.9731139
H      -2.3053482     -3.7753696     -1.1414442
C      -3.9324098      0.6097998     -2.3547648
C      -3.5095439      3.3006672     -3.0217605
H      -4.1096268     -0.4340918     -2.0984087
H      -3.3411595      4.3506473     -3.2689323
C      -4.5552461      1.1644133     -3.4467858
C      -4.3374966      2.5219991     -3.7917728
H      -5.2247606      0.5544581     -4.0548403
H      -4.8345534      2.9455271     -4.6656981
H       1.3042443      2.3350676      0.1773178
C       3.7162449      1.3977001     -1.8638316
C       3.8450649      0.1173894     -2.4818702
C       1.6428285      0.3898078     -1.7817291
C       1.7941484      2.6404220     -0.7585116
C       2.6347769     -0.5906646     -2.3519964
N       2.3379869      1.4940828     -1.4338073
O       0.4305491      0.2492139     -1.6065751
O       4.4897914      2.3292398     -1.7021348
H       4.7680317     -0.2278278     -2.9399062
H       1.0588676      3.1660366     -1.3856053
H       2.2736757     -1.3556662     -3.0441033
H       2.6341077      3.3062958     -0.5251851
          85

O       0.5448938     -2.4566531     -0.0911305
C       1.5477563     -2.6025643     -0.7686359
O       1.6043764     -3.5037763     -1.7615582
C       0.4044919     -4.2306670     -2.0435191
C       0.6880472     -5.1918317     -3.1745966
C       2.7869772     -1.8320452     -0.6982832
N       2.9796181     -0.9190975      0.2870869
C       4.1629362     -0.3920931      0.3448019
C       4.4497436      0.7902709      1.1543625
C       3.4382171      1.4226296      1.8946090
C       3.7121468      2.5624953      2.6402527
C       5.0037586      3.0990904      2.6492259
C       6.0110281      2.4912606      1.8985945
C       5.7356217      1.3471924      1.1522494
H       0.0860403     -4.7571363     -1.1309638
H      -0.3810297     -3.5071396     -2.3032913
H      -0.2201939     -5.7626195     -3.4103301
H       1.4820462     -5.8988477     -2.8974752
H       1.0006701     -4.6494549     -4.0775338
H      -0.8872828     -0.7863097     -1.8931836
H       3.6502144     -2.3463889     -1.1407692
H       5.0078465     -0.8299748     -0.2089339
H       2.4324990      1.0045985      1.8529053
H       2.9162570      3.0434968      3.2127886
H       5.2205388      3.9955442      3.2324303
H       7.0166989      2.9153212      1.8914067
H       6.5201709      0.8781609      0.5542119
H       0.3600516      0.8707665      4.4669144
C       0.0571903      0.8255178      3.4254692
H      -1.2066813      2.5993156      2.9435937
H       2.2932764     -1.0022567      3.1131006
C      -0.7023854      1.6745951      2.6797727
H       1.2351348     -2.0685182      2.1396810
C       1.2637898     -1.3528191      2.9668242
N       0.4174244     -0.2204966      2.6010759
H      -4.7329573      0.7094745      3.9394524
H      -5.1790968     -1.6622243      4.5983581
C      -4.4100318     -0.1042599      3.2878942
C      -4.6686700     -1.4446958      3.6590956
N      -0.7883021      1.1241803      1.4130426
H       0.8749406     -1.8001555      3.8884242
C      -0.0883246     -0.0171348      1.3902203
C      -3.7638664      0.1865478      2.1075359
C      -4.2858283     -2.4659766      2.8216069
H      -0.7150189      3.6367811      0.6334569
H      -3.5969853      1.2289533      1.8328013
H      -4.4924169     -3.5062381      3.0829006
C      -1.5353415      1.6527157      0.3110399
C      -1.3748305      3.0264356      0.0155379
C      -3.3292078     -0.8486213      1.2310631
C      -3.6189703     -2.1960101      1.5974835
H       0.0708710     -0.6753288      0.5344092
C      -2.6332123     -0.5845070      0.0011621
C      -3.2505892     -3.2465586      0.7097240
C      -2.3730864      0.8244248     -0.4125173
C      -2.0203394      3.5650241     -1.0651029
H      -3.4915016     -4.2759249      0.9831374
H      -1.8903296      4.6192056     -1.3154778
C      -2.5993327     -2.9775490     -0.4605101
C      -2.2572510     -1.6414969     -0.8147622
C      -3.0498161      1.3831981     -1.5480477
C      -2.8530944      2.7562092     -1.8835800
O      -1.5953090     -1.4709609     -1.9741714
H      -2.3056092     -3.7757924     -1.1413605
C      -3.9327212      0.6099668     -2.3548413
C      -3.5092793      3.3006910     -3.0220332
H      -4.1101924     -0.4338440     -2.0983480
H      -3.3407321      4.3506387     -3.2692385
C      -4.5551970      1.1645547     -3.4470901
C      -4.3371008      2.5220472     -3.7922158
H      -5.2247096      0.5546499     -4.0551973
H      -4.8338548      2.9455516     -4.6663266
H       1.3037335      2.3299820      0.1811689
C       3.7128068      1.4044858     -1.8608728
C       3.8415875      0.1185615     -2.4865090
C       1.6439622      0.3922584     -1.7859759
C       1.7921659      2.6415088     -0.7531967
C       2.6341685     -0.5713460     -2.3772125
N       2.3392261      1.4997002     -1.4339845
O       0.4334078      0.2490980     -1.6085222
O       4.4935417      2.3275765     -1.7034907
H       4.7644521     -0.2224866     -2.9478733
H       1.0554469      3.1673416     -1.3782121
H       2.2831678     -1.3679542     -3.0336985
H       2.6293291      3.3093908     -0.5158994
          85

O       0.5470598     -2.4541352     -0.0947590
C       1.5527466     -2.6018810     -0.7622747
O       1.6032859     -3.5040965     -1.7613493
C       0.4008900     -4.2335725     -2.0487831
C       0.6828883     -5.1979230     -3.1802178
C       2.7901037     -1.8263444     -0.6599222
N       2.9818349     -0.9044395      0.2979439
C       4.1697639     -0.3880179      0.3391471
C       4.4481651      0.7878015      1.1499022
C       3.4348567      1.4174840      1.8905297
C       3.7104305      2.5562332      2.6363801
C       5.0023855      3.0932972      2.6466577
C       6.0091453      2.4857198      1.8955710
C       5.7324928      1.3440028      1.1484400
H       0.0839528     -4.7613368     -1.1364613
H      -0.3847446     -3.5100538     -2.3078433
H      -0.2263015     -5.7683995     -3.4133052
H       1.4765546     -5.9051705     -2.9021183
H       0.9957378     -4.6583224     -4.0847444
H      -0.8875539     -0.7884844     -1.8952178
H       3.6527136     -2.3260420     -1.1215364
H       5.0097410     -0.8333058     -0.2153014
H       2.4291835      1.0001310      1.8491900
H       2.9150387      3.0373847      3.2096217
H       5.2195379      3.9885095      3.2316014
H       7.0155633      2.9079048      1.8891222
H       6.5161703      0.8748403      0.5494155
H       0.3601950      0.8678598      4.4664050
C       0.0573361      0.8234474      3.4249081
H      -1.2051584      2.5982143      2.9435901
H       2.2924604     -1.0013178      3.1157405
C      -0.7013967      1.6733616      2.6793471
H       1.2392528     -2.0677261      2.1367022
C       1.2641064     -1.3537196      2.9654047
N       0.4168522     -0.2221614      2.5999691
H      -4.7328407      0.7092744      3.9394604
H      -5.1792832     -1.6623421      4.5984775
C      -4.4099589     -0.1045232      3.2879576
C      -4.6687582     -1.4448924      3.6592499
N      -0.7874449      1.1239038      1.4122092
H       0.8741730     -1.8040157      3.8851012
C      -0.0879313     -0.0174608      1.3889467
C      -3.7635748      0.1862752      2.1076553
C      -4.2857313     -2.4661777      2.8218634
H      -0.7136781      3.6362059      0.6327274
H      -3.5965227      1.2287060      1.8330806
H      -4.4921862     -3.5064654      3.0831612
C      -1.5346975      1.6525244      0.3103246
C      -1.3740600      3.0262109      0.0150247
C      -3.3291402     -0.8488190      1.2309664
C      -3.6189595     -2.1961331      1.5977044
H       0.0716614     -0.6743846      0.5324273
C      -2.6332924     -0.5847183      0.0007296
C      -3.2506255     -3.2467415      0.7100919
C      -2.3731331      0.8243545     -0.4127848
C      -2.0200840      3.5649348     -1.0652137
H      -3.4908173     -4.2761227      0.9840928
H      -1.8899872      4.6191383     -1.3154086
C      -2.6000260     -2.9777810     -0.4605631
C      -2.2576795     -1.6418586     -0.8153909
C      -3.0501064      1.3832404     -1.5481194
C      -2.8530714      2.7562169     -1.8836946
O      -1.5960588     -1.4724013     -1.9750456
H      -2.3065476     -3.7761888     -1.1413343
C      -3.9331091      0.6100909     -2.3548879
C      -3.5090481      3.3006781     -3.0223018
H      -4.1108364     -0.4336389     -2.0982487
H      -3.3403776      4.3506053     -3.2695088
C      -4.5551248      1.1646718     -3.4474297
C      -4.3367349      2.5220823     -3.7926906
H      -5.2245512      0.5548253     -4.0556798
H      -4.8331638      2.9455957     -4.6669829
H       1.3046167      2.3190090      0.1821435
C       3.7131121      1.4087859     -1.8657830
C       3.8397330      0.1251129     -2.4898428
C       1.6427754      0.3965773     -1.7838865
C       1.7911969      2.6351849     -0.7514599
C       2.6323589     -0.5493848     -2.3651882
N       2.3399600      1.5019299     -1.4375133
O       0.4331933      0.2440214     -1.6127728
O       4.4995155      2.3227540     -1.7055945
H       4.7568151     -0.2171425     -2.9606141
H       1.0520390      3.1609912     -1.3735400
H       2.2859456     -1.3594478     -3.0092343
H       2.6258817      3.3052095     -0.5105790
          85

O       0.5441128     -2.4571655     -0.1019943
C       1.5499083     -2.6074184     -0.7706131
O       1.5989153     -3.5104543     -1.7688424
C       0.3968113     -4.2393438     -2.0526209
C       0.6800189     -5.2030041     -3.1838331
C       2.7888846     -1.8390324     -0.6703582
N       2.9799897     -0.9133512      0.2846903
C       4.1663719     -0.3919767      0.3322276
C       4.4443738      0.7835512      1.1459254
C       3.4329643      1.4150146      1.8882949
C       3.7098411      2.5536459      2.6346752
C       5.0019079      3.0902418      2.6449378
C       6.0076624      2.4810191      1.8937271
C       5.7296442      1.3394256      1.1464546
H       0.0808106     -4.7668416     -1.1397418
H      -0.3897621     -3.5166445     -2.3114127
H      -0.2274380     -5.7759294     -3.4175287
H       1.4757156     -5.9079650     -2.9057810
H       0.9917795     -4.6621139     -4.0879842
H      -0.8892559     -0.7905709     -1.8981018
H       3.6503574     -2.3330022     -1.1392803
H       5.0088458     -0.8335806     -0.2218992
H       2.4264587      0.9993444      1.8478223
H       2.9146753      3.0348776      3.2081895
H       5.2198276      3.9854360      3.2296257
H       7.0146944      2.9018032      1.8869228
H       6.5135424      0.8700126      0.5478640
H       0.3594662      0.8668511      4.4659819
C       0.0568716      0.8224527      3.4244090
H      -1.2054175      2.5973283      2.9427480
H       2.2922670     -1.0031145      3.1136502
C      -0.7016146      1.6724379      2.6786752
H       1.2377307     -2.0688020      2.1350587
C       1.2636216     -1.3550725      2.9641308
N       0.4164477     -0.2231920      2.5994747
H      -4.7329734      0.7091447      3.9393833
H      -5.1793401     -1.6624827      4.5984562
C      -4.4100433     -0.1046622      3.2879135
C      -4.6688094     -1.4450202      3.6592340
N      -0.7873724      1.1229716      1.4115289
H       0.8742993     -1.8054749      3.8840273
C      -0.0880168     -0.0186286      1.3882496
C      -3.7635981      0.1861276      2.1076222
C      -4.2857153     -2.4662894      2.8218573
H      -0.7132540      3.6355816      0.6324422
H      -3.5965713      1.2285702      1.8330484
H      -4.4921088     -3.5065890      3.0831600
C      -1.5346131      1.6519884      0.3098722
C      -1.3738655      3.0257617      0.0147861
C      -3.3291806     -0.8489558      1.2308977
C      -3.6189983     -2.1962565      1.5976964
H       0.0721370     -0.6761793      0.5318491
C      -2.6337155     -0.5849784      0.0003959
C      -3.2507223     -3.2469866      0.7101932
C      -2.3732865      0.8240175     -0.4131440
C      -2.0199833      3.5647005     -1.0653128
H      -3.4906587     -4.2763550      0.9844665
H      -1.8898169      4.6189150     -1.3154396
C      -2.6006710     -2.9780926     -0.4607018
C      -2.2589702     -1.6421716     -0.8160830
C      -3.0502664      1.3831407     -1.5483145
C      -2.8531038      2.7561039     -1.8838122
O      -1.5994824     -1.4729201     -1.9768579
H      -2.3071773     -3.7764613     -1.1414800
C      -3.9333797      0.6100391     -2.3549675
C      -3.5090411      3.3005612     -3.0224401
H      -4.1111960     -0.4336329     -2.0982197
H      -3.3403691      4.3504805     -3.2696819
C      -4.5552059      1.1645518     -3.4476230
C      -4.3366435      2.5219254     -3.7928981
H      -5.2246255      0.5547280     -4.0559036
H      -4.8329465      2.9454300     -4.6672670
H       1.3052300      2.3139470      0.1753458
C       3.7090160      1.4018961     -1.8747755
C       3.8335675      0.1205597     -2.5104503
C       1.6395323      0.3906890     -1.7974515
C       1.7905092      2.6285715     -0.7594262
C       2.6265297     -0.5511516     -2.3940100
N       2.3385511      1.4939232     -1.4446748
O       0.4305513      0.2403269     -1.6211188
O       4.4967300      2.3138925     -1.7115139
H       4.7511839     -0.2199766     -2.9816474
H       1.0505484      3.1528887     -1.3817933
H       2.2806273     -1.3675075     -3.0295435
H       2.6254165      3.2990865     -0.5210094
          85

O       0.5413674     -2.4603639     -0.1093087
C       1.5470654     -2.6130250     -0.7793204
O       1.5943629     -3.5170098     -1.7764868
C       0.3924970     -4.2451748     -2.0564149
C       0.6772383     -5.2079574     -3.1874059
C       2.7876442     -1.8511979     -0.6818164
N       2.9782930     -0.9221790      0.2713645
C       4.1631046     -0.3961313      0.3253050
C       4.4404993      0.7791856      1.1421242
C       3.4311402      1.4126937      1.8862926
C       3.7094452      2.5512940      2.6331410
C       5.0015996      3.0874894      2.6433196
C       6.0061743      2.4764228      1.8919389
C       5.7266268      1.3348672      1.1446574
H       0.0775564     -4.7724670     -1.1429739
H      -0.3950174     -3.5232681     -2.3148488
H      -0.2282214     -5.7836063     -3.4219928
H       1.4751470     -5.9103505     -2.9092419
H       0.9880060     -4.6655666     -4.0910166
H      -0.8910873     -0.7924501     -1.9010408
H       3.6480741     -2.3398907     -1.1573515
H       5.0081102     -0.8339099     -0.2285167
H       2.4237109      0.9989176      1.8469237
H       2.9145142      3.0325980      3.2069476
H       5.2203654      3.9826929      3.2276822
H       7.0138866      2.8956367      1.8846146
H       6.5107910      0.8652171      0.5465492
H       0.3586644      0.8658681      4.4655975
C       0.0563690      0.8214731      3.4239392
H      -1.2056499      2.5964835      2.9418773
H       2.2920236     -1.0049485      3.1116249
C      -0.7018249      1.6715388      2.6779976
H       1.2361086     -2.0699757      2.1336106
C       1.2630743     -1.3564455      2.9629813
N       0.4159967     -0.2242346      2.5990383
H      -4.7331430      0.7089710      3.9393287
H      -5.1793772     -1.6626906      4.5984488
C      -4.4101550     -0.1048369      3.2878864
C      -4.6688704     -1.4451896      3.6592220
N      -0.7872906      1.1220558      1.4108549
H       0.8743824     -1.8068706      3.8831263
C      -0.0881177     -0.0197971      1.3875908
C      -3.7636160      0.1859635      2.1076261
C      -4.2856820     -2.4664198      2.8218393
H      -0.7128833      3.6350460      0.6322151
H      -3.5965959      1.2284242      1.8330862
H      -4.4919531     -3.5067418      3.0831541
C      -1.5345115      1.6515006      0.3094306
C      -1.3736917      3.0253786      0.0145913
C      -3.3292411     -0.8490830      1.2308198
C      -3.6190570     -2.1963771      1.5976610
H       0.0726269     -0.6779168      0.5312800
C      -2.6341420     -0.5852084      0.0000632
C      -3.2508006     -3.2472296      0.7102821
C      -2.3734205      0.8237189     -0.4134926
C      -2.0198712      3.5644947     -1.0654107
H      -3.4904452     -4.2765897      0.9848441
H      -1.8896318      4.6187157     -1.3154869
C      -2.6012834     -2.9783905     -0.4608443
C      -2.2602598     -1.6424533     -0.8167803
C      -3.0504315      1.3830597     -1.5484939
C      -2.8531117      2.7559994     -1.8839358
O      -1.6028897     -1.4733939     -1.9786527
H      -2.3077400     -3.7767205     -1.1416134
C      -3.9336757      0.6099933     -2.3550103
C      -3.5090324      3.3004288     -3.0225832
H      -4.1116163     -0.4336036     -2.0981072
H      -3.3403914      4.3503450     -3.2698619
C      -4.5552491      1.1643935     -3.4478396
C      -4.3365127      2.5217296     -3.7931314
H      -5.2246294      0.5545753     -4.0561697
H      -4.8326670      2.9452178     -4.6675937
H       1.3059972      2.3089583      0.1683030
C       3.7049275      1.3946958     -1.8839248
C       3.8275664      0.1160107     -2.5309128
C       1.6361592      0.3848645     -1.8109367
C       1.7899648      2.6216920     -0.7677589
C       2.6206362     -0.5529041     -2.4221423
N       2.3371400      1.4855886     -1.4518577
O       0.4277969      0.2366740     -1.6293816
O       4.4936744      2.3049262     -1.7174181
H       4.7456532     -0.2230204     -3.0024952
H       1.0491915      3.1443556     -1.3905411
H       2.2747229     -1.3748769     -3.0499829
H       2.6251498      3.2927109     -0.5320849
          85

O       0.5388707     -2.4638472     -0.1165570
C       1.5440162     -2.6183775     -0.7882989
O       1.5898409     -3.5234990     -1.7840139
C       0.3884374     -4.2505423     -2.0598211
C       0.6748844     -5.2122337     -3.1904793
C       2.7861307     -1.8629832     -0.6948380
N       2.9766843     -0.9322714      0.2569272
C       4.1592490     -0.4010269      0.3184425
C       4.4364074      0.7746058      1.1385849
C       3.4296557      1.4108914      1.8847597
C       3.7093189      2.5496259      2.6321209
C       5.0015181      3.0854648      2.6420339
C       6.0049479      2.4724089      1.8904291
C       5.7237464      1.3306640      1.1432182
H       0.0749337     -4.7775763     -1.1456596
H      -0.4000392     -3.5293737     -2.3176774
H      -0.2283809     -5.7907651     -3.4261994
H       1.4752190     -5.9117970     -2.9121143
H       0.9848216     -4.6680710     -4.0933268
H      -0.8931743     -0.7938671     -1.9039782
H       3.6450515     -2.3474118     -1.1780167
H       5.0073522     -0.8343477     -0.2347256
H       2.4211949      0.9991648      1.8467821
H       2.9146219      3.0309921      3.2062394
H       5.2212215      3.9807609      3.2259280
H       7.0133472      2.8900654      1.8826803
H       6.5085545      0.8609595      0.5458793
H       0.3577214      0.8650241      4.4652674
C       0.0558079      0.8205865      3.4235030
H      -1.2058816      2.5957500      2.9409166
H       2.2917693     -1.0068910      3.1097511
C      -0.7020568      1.6707199      2.6773033
H       1.2343652     -2.0713249      2.1325123
C       1.2624711     -1.3578494      2.9620554
N       0.4155431     -0.2252213      2.5987066
H      -4.7334066      0.7087653      3.9392607
H      -5.1792922     -1.6629889      4.5985138
C      -4.4103072     -0.1050483      3.2878785
C      -4.6689552     -1.4454003      3.6592147
N      -0.7872371      1.1211674      1.4102265
H       0.8745466     -1.8081100      3.8825949
C      -0.0882635     -0.0209275      1.3870353
C      -3.7636085      0.1857827      2.1076920
C      -4.2856264     -2.4665472      2.8217967
H      -0.7126725      3.6346776      0.6321345
H      -3.5966403      1.2282749      1.8332062
H      -4.4916059     -3.5069127      3.0831720
C      -1.5343807      1.6511116      0.3090512
C      -1.3735964      3.0251191      0.0144952
C      -3.3293410     -0.8491915      1.2307218
C      -3.6191469     -2.1964906      1.5975723
H       0.0730475     -0.6795370      0.5307735
C      -2.6345732     -0.5853900     -0.0002669
C      -3.2508600     -3.2474768      0.7103537
C      -2.3734820      0.8234973     -0.4138197
C      -2.0197405      3.5643403     -1.0655159
H      -3.4902179     -4.2768241      0.9852170
H      -1.8894207      4.6185566     -1.3155908
C      -2.6018227     -2.9786858     -0.4609876
C      -2.2615359     -1.6427080     -0.8174495
C      -3.0505950      1.3830053     -1.5486447
C      -2.8530680      2.7559017     -1.8840697
O      -1.6062128     -1.4737716     -1.9803724
H      -2.3081395     -3.7769458     -1.1417493
C      -3.9340149      0.6099421     -2.3550077
C      -3.5090423      3.3002778     -3.0227050
H      -4.1121472     -0.4335499     -2.0978707
H      -3.3404680      4.3501981     -3.2700143
C      -4.5552565      1.1641701     -3.4480999
C      -4.3363500      2.5214876     -3.7933729
H      -5.2245258      0.5543502     -4.0565524
H      -4.8322935      2.9449651     -4.6679615
H       1.3067961      2.3051777      0.1612883
C       3.7007670      1.3870633     -1.8927870
C       3.8217449      0.1111928     -2.5506245
C       1.6328520      0.3787011     -1.8245984
C       1.7896057      2.6148271     -0.7763742
C       2.6147021     -0.5541701     -2.4495458
N       2.3358553      1.4765307     -1.4589068
O       0.4253563      0.2335390     -1.6371047
O       4.4898540      2.2960171     -1.7231149
H       4.7405365     -0.2262527     -3.0221285
H       1.0482434      3.1357184     -1.3999405
H       2.2687494     -1.3810090     -3.0727146
H       2.6254176      3.2860981     -0.5439078
          85

O       0.5346634     -2.4669191     -0.1212568
C       1.5396749     -2.6235774     -0.7969831
O       1.5872052     -3.5283286     -1.7903340
C       0.3868378     -4.2538526     -2.0614051
C       0.6738036     -5.2145509     -3.1918835
C       2.7842365     -1.8780227     -0.7159041
N       2.9737971     -0.9452017      0.2430217
C       4.1534405     -0.4050907      0.3148923
C       4.4342927      0.7727445      1.1362630
C       3.4292765      1.4101831      1.8839153
C       3.7090883      2.5489625      2.6318491
C       5.0013863      3.0841120      2.6411948
C       6.0046005      2.4701394      1.8897707
C       5.7231023      1.3279597      1.1423634
H       0.0727729     -4.7796172     -1.1466005
H      -0.4021842     -3.5331571     -2.3195918
H      -0.2280969     -5.7949049     -3.4283705
H       1.4757301     -5.9124998     -2.9144247
H       0.9821841     -4.6689300     -4.0944399
H      -0.8948688     -0.7955719     -1.9057663
H       3.6424563     -2.3623362     -1.1972004
H       5.0051215     -0.8329265     -0.2377944
H       2.4204461      0.9989105      1.8462182
H       2.9145711      3.0304185      3.2061976
H       5.2214175      3.9799331      3.2241551
H       7.0131670      2.8874249      1.8819781
H       6.5084301      0.8580544      0.5458452
H       0.3566774      0.8647365      4.4649683
C       0.0552261      0.8200678      3.4230673
H      -1.2063886      2.5953791      2.9400216
H       2.2918148     -1.0088922      3.1074352
C      -0.7024908      1.6702862      2.6767689
H       1.2323037     -2.0726675      2.1317675
C       1.2619983     -1.3590886      2.9613983
N       0.4153187     -0.2258663      2.5984810
H      -4.7336894      0.7086949      3.9390687
H      -5.1790045     -1.6631904      4.5986613
C      -4.4104090     -0.1051845      3.2878358
C      -4.6690438     -1.4455357      3.6591812
N      -0.7873385      1.1204209      1.4098312
H       0.8746614     -1.8086194      3.8824912
C      -0.0884304     -0.0219741      1.3866830
C      -3.7636236      0.1856747      2.1077518
C      -4.2855983     -2.4665618      2.8217150
H      -0.7126426      3.6342804      0.6321651
H      -3.5969409      1.2282217      1.8332918
H      -4.4912148     -3.5070788      3.0831171
C      -1.5343130      1.6507799      0.3089412
C      -1.3736428      3.0248532      0.0144427
C      -3.3294378     -0.8492833      1.2306260
C      -3.6191956     -2.1965996      1.5974675
H       0.0726811     -0.6820900      0.5310189
C      -2.6349535     -0.5855855     -0.0005103
C      -3.2508853     -3.2476535      0.7103577
C      -2.3734291      0.8233464     -0.4140669
C      -2.0196665      3.5642373     -1.0656552
H      -3.4903857     -4.2769642      0.9851104
H      -1.8895088      4.6184296     -1.3161040
C      -2.6022057     -2.9789036     -0.4611043
C      -2.2626168     -1.6430141     -0.8178742
C      -3.0506657      1.3829965     -1.5487560
C      -2.8530093      2.7558320     -1.8841457
O      -1.6091843     -1.4739864     -1.9817881
H      -2.3081480     -3.7769360     -1.1419544
C      -3.9342767      0.6098557     -2.3550487
C      -3.5090892      3.3001770     -3.0227608
H      -4.1126452     -0.4335413     -2.0977479
H      -3.3404697      4.3500392     -3.2700266
C      -4.5553276      1.1639333     -3.4482990
C      -4.3362731      2.5212960     -3.7934907
H      -5.2244951      0.5541932     -4.0569627
H      -4.8319721      2.9447221     -4.6681537
H       1.3070715      2.3040101      0.1557458
C       3.6970892      1.3804156     -1.8984514
C       3.8165570      0.1048874     -2.5676169
C       1.6305770      0.3723117     -1.8369407
C       1.7888915      2.6122043     -0.7829261
C       2.6099651     -0.5648988     -2.4810420
N       2.3343913      1.4700154     -1.4637582
O       0.4231526      0.2324341     -1.6427446
O       4.4861716      2.2905736     -1.7276093
H       4.7382821     -0.2299465     -3.0357541
H       1.0470893      3.1315742     -1.4071807
H       2.2627673     -1.3920217     -3.0992740
H       2.6252072      3.2835772     -0.5533011
          85

O       0.5301219     -2.4698952     -0.1257548
C       1.5352909     -2.6289963     -0.8055184
O       1.5840797     -3.5335725     -1.7967052
C       0.3852090     -4.2577470     -2.0630855
C       0.6728606     -5.2170804     -3.1930721
C       2.7823598     -1.8935199     -0.7378402
N       2.9713969     -0.9569418      0.2300476
C       4.1481286     -0.4091875      0.3113945
C       4.4321439      0.7706361      1.1339600
C       3.4286828      1.4094992      1.8826688
C       3.7087081      2.5481826      2.6311581
C       5.0009703      3.0825890      2.6402948
C       6.0038563      2.4676874      1.8891257
C       5.7221892      1.3250872      1.1413647
H       0.0708220     -4.7828445     -1.1479544
H      -0.4044439     -3.5378479     -2.3217380
H      -0.2280864     -5.7986834     -3.4299248
H       1.4759496     -5.9139540     -2.9164719
H       0.9798258     -4.6700833     -4.0952726
H      -0.8957833     -0.7972448     -1.9074827
H       3.6425787     -2.3776362     -1.2153838
H       5.0030548     -0.8318855     -0.2412165
H       2.4194974      0.9987495      1.8449054
H       2.9141051      3.0294016      3.2054404
H       5.2213037      3.9785774      3.2228798
H       7.0124475      2.8850143      1.8811141
H       6.5074929      0.8547156      0.5451499
H       0.3563791      0.8647154      4.4646677
C       0.0549174      0.8198845      3.4228047
H      -1.2072158      2.5947923      2.9395352
H       2.2919943     -1.0106770      3.1044106
C      -0.7030205      1.6697786      2.6763797
H       1.2295217     -2.0735635      2.1309382
C       1.2616030     -1.3598354      2.9603921
N       0.4153129     -0.2261789      2.5982600
H      -4.7336082      0.7087265      3.9390790
H      -5.1793186     -1.6630552      4.5983931
C      -4.4104336     -0.1050897      3.2877342
C      -4.6689726     -1.4454436      3.6591026
N      -0.7875582      1.1196463      1.4094776
H       0.8749032     -1.8087413      3.8821054
C      -0.0886341     -0.0229605      1.3864006
C      -3.7637995      0.1856879      2.1075008
C      -4.2856579     -2.4665892      2.8216628
H      -0.7126654      3.6338341      0.6319046
H      -3.5969776      1.2281791      1.8328995
H      -4.4916879     -3.5069478      3.0830336
C      -1.5346096      1.6501857      0.3086697
C      -1.3736486      3.0243535      0.0142519
C      -3.3293935     -0.8493406      1.2306507
C      -3.6191650     -2.1966444      1.5974690
H       0.0728670     -0.6841682      0.5311357
C      -2.6352546     -0.5858032     -0.0006280
C      -3.2510355     -3.2478276      0.7103229
C      -2.3737002      0.8228569     -0.4143366
C      -2.0197003      3.5639465     -1.0656915
H      -3.4905470     -4.2771295      0.9852042
H      -1.8893598      4.6181720     -1.3157780
C      -2.6026162     -2.9791737     -0.4611809
C      -2.2636229     -1.6431827     -0.8182324
C      -3.0506858      1.3827844     -1.5489722
C      -2.8531742      2.7556975     -1.8842022
O      -1.6120077     -1.4740669     -1.9831148
H      -2.3087096     -3.7772337     -1.1420239
C      -3.9342544      0.6098040     -2.3551849
C      -3.5091462      3.3001196     -3.0227917
H      -4.1123552     -0.4336590     -2.0980166
H      -3.3405704      4.3500216     -3.2701839
C      -4.5554994      1.1639575     -3.4482380
C      -4.3364207      2.5212562     -3.7934404
H      -5.2248535      0.5541607     -4.0566294
H      -4.8323366      2.9447178     -4.6680525
H       1.3068771      2.3029356      0.1501790
C       3.6933465      1.3738044     -1.9042257
C       3.8115942      0.0987632     -2.5847554
C       1.6282721      0.3661155     -1.8496097
C       1.7882023      2.6095989     -0.7892940
C       2.6061511     -0.5751179     -2.5125538
N       2.3327156      1.4635874     -1.4687248
O       0.4212569      0.2309236     -1.6488406
O       4.4824980      2.2849092     -1.7321990
H       4.7364230     -0.2340257     -3.0492644
H       1.0466241      3.1283852     -1.4143045
H       2.2557415     -1.4070138     -3.1245490
H       2.6254265      3.2806157     -0.5623986
          85

O       0.5276745     -2.4733143     -0.1329735
C       1.5321797     -2.6342611     -0.8141790
O       1.5791803     -3.5402414     -1.8038716
C       0.3808915     -4.2640437     -2.0663406
C       0.6706070     -5.2221406     -3.1960589
C       2.7809348     -1.9042541     -0.7499665
N       2.9701455     -0.9673140      0.2152467
C       4.1446252     -0.4143383      0.3045884
C       4.4280933      0.7659402      1.1303815
C       3.4268202      1.4076068      1.8804113
C       3.7080289      2.5463188      2.6294632
C       5.0003906      3.0801731      2.6389159
C       6.0021778      2.4634661      1.8875468
C       5.7191119      1.3207447      1.1397444
H       0.0680574     -4.7891686     -1.1506126
H      -0.4099966     -3.5452194     -2.3245026
H      -0.2283004     -5.8061996     -3.4343917
H       1.4756665     -5.9165380     -2.9190451
H       0.9771632     -4.6733570     -4.0973243
H      -0.8972530     -0.7989158     -1.9101201
H       3.6372182     -2.3851744     -1.2358990
H       5.0027493     -0.8324883     -0.2470469
H       2.4166316      0.9990490      1.8435155
H       2.9134327      3.0276498      3.2036947
H       5.2215812      3.9760432      3.2213721
H       7.0113804      2.8794000      1.8791242
H       6.5049224      0.8503697      0.5441104
H       0.3562562      0.8645626      4.4642544
C       0.0547659      0.8195114      3.4224076
H      -1.2080261      2.5939039      2.9388484
H       2.2922407     -1.0123025      3.1013114
C      -0.7035004      1.6690169      2.6758535
H       1.2273133     -2.0744399      2.1295581
C       1.2613133     -1.3606283      2.9590086
N       0.4152502     -0.2265614      2.5978821
H      -4.7336073      0.7089179      3.9388798
H      -5.1794566     -1.6627622      4.5982527
C      -4.4104258     -0.1049289      3.2875757
C      -4.6689481     -1.4452594      3.6590254
N      -0.7878572      1.1187281      1.4090137
H       0.8758002     -1.8091837      3.8813748
C      -0.0887609     -0.0238384      1.3859451
C      -3.7639306      0.1857240      2.1072399
C      -4.2857712     -2.4665330      2.8216698
H      -0.7123762      3.6329245      0.6316673
H      -3.5972267      1.2281746      1.8324050
H      -4.4921160     -3.5068307      3.0830368
C      -1.5348064      1.6494801      0.3082879
C      -1.3735778      3.0236596      0.0140191
C      -3.3293825     -0.8494654      1.2306636
C      -3.6191650     -2.1967366      1.5975468
H       0.0734821     -0.6854347      0.5307182
C      -2.6356507     -0.5861483     -0.0008489
C      -3.2512411     -3.2480250      0.7104209
C      -2.3739935      0.8223463     -0.4146971
C      -2.0197375      3.5635587     -1.0656923
H      -3.4906274     -4.2772952      0.9855359
H      -1.8894415      4.6178616     -1.3154416
C      -2.6032344     -2.9794808     -0.4612919
C      -2.2647383     -1.6434850     -0.8188061
C      -3.0507665      1.3825423     -1.5492644
C      -2.8533240      2.7555058     -1.8842770
O      -1.6150969     -1.4742857     -1.9846543
H      -2.3094726     -3.7775482     -1.1421597
C      -3.9342903      0.6096522     -2.3554520
C      -3.5092675      3.3000775     -3.0227992
H      -4.1122065     -0.4338716     -2.0984780
H      -3.3406255      4.3499783     -3.2701477
C      -4.5558159      1.1640222     -3.4481981
C      -4.3367319      2.5213165     -3.7933467
H      -5.2253632      0.5543260     -4.0564742
H      -4.8328143      2.9448469     -4.6678304
H       1.3071014      2.2985353      0.1427226
C       3.6892677      1.3663233     -1.9133501
C       3.8062141      0.0942857     -2.6044527
C       1.6253386      0.3598141     -1.8638176
C       1.7879456      2.6027917     -0.7977204
C       2.6005835     -0.5766013     -2.5396063
N       2.3312484      1.4547383     -1.4762873
O       0.4192209      0.2270458     -1.6574852
O       4.4788922      2.2759829     -1.7380640
H       4.7317842     -0.2371435     -3.0685730
H       1.0465593      3.1210243     -1.4234132
H       2.2532717     -1.4107022     -3.1466993
H       2.6261474      3.2731915     -0.5729546
          85

O       0.5249233     -2.4764805     -0.1400704
C       1.5291438     -2.6395346     -0.8227468
O       1.5745810     -3.5466665     -1.8111034
C       0.3767302     -4.2703020     -2.0698221
C       0.6679913     -5.2275887     -3.1993844
C       2.7794754     -1.9159477     -0.7616537
N       2.9688583     -0.9767499      0.2017899
C       4.1413496     -0.4189677      0.2976237
C       4.4241274      0.7614354      1.1264056
C       3.4247406      1.4052599      1.8778644
C       3.7071722      2.5438936      2.6274627
C       4.9996692      3.0771880      2.6372301
C       6.0004010      2.4587828      1.8857383
C       5.7159951      1.3161077      1.1378157
H       0.0651509     -4.7952380     -1.1534853
H      -0.4152703     -3.5524776     -2.3276550
H      -0.2290691     -5.8140009     -3.4387657
H       1.4749395     -5.9197092     -2.9222215
H       0.9738034     -4.6773551     -4.1000340
H      -0.8988122     -0.8009146     -1.9129250
H       3.6336360     -2.3924295     -1.2548891
H       5.0022757     -0.8332823     -0.2530229
H       2.4136600      0.9987038      1.8417501
H       2.9126529      3.0253651      3.2017108
H       5.2216472      3.9729840      3.2195051
H       7.0102330      2.8732502      1.8769654
H       6.5021514      0.8455511      0.5427232
H       0.3559782      0.8641435      4.4637683
C       0.0545410      0.8189423      3.4219132
H      -1.2086778      2.5930340      2.9381274
H       2.2924640     -1.0138740      3.0984270
C      -0.7039164      1.6682232      2.6752780
H       1.2254626     -2.0753848      2.1280981
C       1.2611064     -1.3615698      2.9576176
N       0.4151336     -0.2271540      2.5973998
H      -4.7336728      0.7090843      3.9386479
H      -5.1795158     -1.6625296      4.5982146
C      -4.4104522     -0.1048182      3.2874313
C      -4.6689716     -1.4451135      3.6589864
N      -0.7880803      1.1178078      1.4084977
H       0.8766034     -1.8098970      3.8805050
C      -0.0888622     -0.0247807      1.3853670
C      -3.7639996      0.1857093      2.1070381
C      -4.2858558     -2.4664778      2.8217058
H      -0.7120157      3.6320907      0.6314150
H      -3.5974151      1.2281363      1.8320248
H      -4.4923176     -3.5067395      3.0831278
C      -1.5348922      1.6488220      0.3078758
C      -1.3734457      3.0230376      0.0137824
C      -3.3294085     -0.8495960      1.2306151
C      -3.6192022     -2.1968279      1.5976063
H       0.0739177     -0.6869023      0.5302107
C      -2.6360716     -0.5864892     -0.0011506
C      -3.2514190     -3.2482383      0.7105455
C      -2.3741983      0.8218736     -0.4150992
C      -2.0197280      3.5632082     -1.0657257
H      -3.4906759     -4.2774797      0.9858832
H      -1.8894548      4.6175654     -1.3152666
C      -2.6038963     -2.9798115     -0.4614020
C      -2.2659185     -1.6438383     -0.8194294
C      -3.0508757      1.3823180     -1.5495574
C      -2.8534261      2.7553177     -1.8843647
O      -1.6183313     -1.4747159     -1.9862989
H      -2.3102257     -3.7778797     -1.1422781
C      -3.9344463      0.6095148     -2.3557090
C      -3.5094031      3.3000272     -3.0227936
H      -4.1122732     -0.4340370     -2.0988515
H      -3.3407229      4.3499325     -3.2700963
C      -4.5561275      1.1640392     -3.4482612
C      -4.3370009      2.5213517     -3.7932910
H      -5.2257944      0.5544466     -4.0565088
H      -4.8331700      2.9449718     -4.6676824
H       1.3072937      2.2930091      0.1351992
C       3.6853607      1.3592427     -1.9224900
C       3.8005043      0.0897953     -2.6242302
C       1.6221749      0.3537610     -1.8778235
C       1.7874451      2.5958599     -0.8060129
C       2.5949508     -0.5784429     -2.5673880
N       2.3297608      1.4464234     -1.4840669
O       0.4168821      0.2228941     -1.6664994
O       4.4759578      2.2672381     -1.7441919
H       4.7264737     -0.2401412     -3.0889092
H       1.0458788      3.1134220     -1.4320336
H       2.2487531     -1.4169720     -3.1685777
H       2.6261952      3.2660566     -0.5830138
          85

O       0.5219263     -2.4795504     -0.1470794
C       1.5260609     -2.6449555     -0.8312209
O       1.5700634     -3.5530815     -1.8184104
C       0.3727159     -4.2764576     -2.0734071
C       0.6652395     -5.2330672     -3.2027618
C       2.7781041     -1.9280523     -0.7735921
N       2.9674574     -0.9859391      0.1889302
C       4.1379789     -0.4233733      0.2908886
C       4.4203552      0.7572022      1.1223527
C       3.4226834      1.4028094      1.8752142
C       3.7062339      2.5412792      2.6254071
C       4.9988803      3.0739722      2.6354258
C       5.9987002      2.4540309      1.8838877
C       5.7130910      1.3114737      1.1357433
H       0.0622305     -4.8011020     -1.1564565
H      -0.4203402     -3.5595971     -2.3309868
H      -0.2301388     -5.8217024     -3.4428698
H       1.4740067     -5.9230352     -2.9256038
H       0.9700962     -4.6815691     -4.1029780
H      -0.9004587     -0.8030662     -1.9158138
H       3.6307949     -2.4003817     -1.2725809
H       5.0015214     -0.8338735     -0.2590320
H       2.4108297      0.9980019      1.8397383
H       2.9118271      3.0228674      3.1997345
H       5.2215838      3.9696973      3.2175351
H       7.0091064      2.8671568      1.8749136
H       6.4995142      0.8406533      0.5411655
H       0.3556237      0.8635657      4.4632594
C       0.0542762      0.8182580      3.4213843
H      -1.2092365      2.5921529      2.9373896
H       2.2926399     -1.0154494      3.0956886
C      -0.7042871      1.6673939      2.6746754
H       1.2237746     -2.0763608      2.1266040
C       1.2609033     -1.3625943      2.9562360
N       0.4149871     -0.2278566      2.5968723
H      -4.7337489      0.7092206      3.9384246
H      -5.1795727     -1.6623396      4.5981945
C      -4.4104927     -0.1047399      3.2872965
C      -4.6690079     -1.4449980      3.6589598
N      -0.7882430      1.1168804      1.4079382
H       0.8772992     -1.8107574      3.8795678
C      -0.0889634     -0.0257833      1.3847371
C      -3.7640472      0.1856695      2.1068615
C      -4.2859173     -2.4664353      2.8217489
H      -0.7116294      3.6313011      0.6311393
H      -3.5975493      1.2280785      1.8317086
H      -4.4924386     -3.5066706      3.0832336
C      -1.5349363      1.6481854      0.3074428
C      -1.3732944      3.0224529      0.0135371
C      -3.3294429     -0.8497270      1.2305453
C      -3.6192508     -2.1969187      1.5976546
H       0.0742621     -0.6885000      0.5296778
C      -2.6364955     -0.5868250     -0.0014824
C      -3.2515914     -3.2484654      0.7106821
C      -2.3743745      0.8214175     -0.4155180
C      -2.0196901      3.5628790     -1.0657858
H      -3.4906987     -4.2776774      0.9862611
H      -1.8893497      4.6172577     -1.3152115
C      -2.6045774     -2.9801621     -0.4615053
C      -2.2671494     -1.6442165     -0.8200716
C      -3.0509978      1.3821094     -1.5498465
C      -2.8535161      2.7551397     -1.8844579
O      -1.6216637     -1.4752559     -1.9880030
H      -2.3109632     -3.7782234     -1.1423845
C      -3.9346492      0.6093965     -2.3559458
C      -3.5095364      3.2999706     -3.0227946
H      -4.1124265     -0.4341671     -2.0991659
H      -3.3408385      4.3498837     -3.2700523
C      -4.5564176      1.1640366     -3.4483638
C      -4.3372289      2.5213655     -3.7932712
H      -5.2261775      0.5545375     -4.0566029
H      -4.8334515      2.9450747     -4.6675894
H       1.3074123      2.2873515      0.1278165
C       3.6814600      1.3522839     -1.9317070
C       3.7946970      0.0852287     -2.6441968
C       1.6189911      0.3477913     -1.8917978
C       1.7867533      2.5891556     -0.8141102
C       2.5893219     -0.5809415     -2.5954764
N       2.3282050      1.4384073     -1.4919176
O       0.4145061      0.2188302     -1.6755563
O       4.4732060      2.2585712     -1.7504466
H       4.7213401     -0.2431456     -3.1089375
H       1.0448599      3.1060258     -1.4402968
H       2.2435241     -1.4239579     -3.1899817
H       2.6259283      3.2592750     -0.5928030
          85

O       0.5249235     -2.4769888     -0.1498649
C       1.5306672     -2.6430247     -0.8249828
O       1.5691392     -3.5527043     -1.8172767
C       0.3696679     -4.2800660     -2.0777195
C       0.6604756     -5.2401693     -3.2073711
C       2.7804713     -1.9181205     -0.7374431
N       2.9700740     -0.9726236      0.1995922
C       4.1450796     -0.4204637      0.2855310
C       4.4187771      0.7542636      1.1176431
C       3.4187332      1.3974390      1.8697597
C       3.7033912      2.5347809      2.6203057
C       4.9964760      3.0676518      2.6324663
C       5.9961819      2.4482882      1.8807577
C       5.7098143      1.3080662      1.1316415
H       0.0612670     -4.8059128     -1.1607706
H      -0.4238923     -3.5636583     -2.3346165
H      -0.2363050     -5.8278651     -3.4447031
H       1.4683586     -5.9309734     -2.9291939
H       0.9658239     -4.6917681     -4.1092785
H      -0.9004294     -0.8053069     -1.9178484
H       3.6299344     -2.3792194     -1.2552801
H       5.0038965     -0.8379884     -0.2650833
H       2.4069835      0.9932797      1.8337646
H       2.9091253      3.0166732      3.1947002
H       5.2193112      3.9620053      3.2166076
H       7.0072426      2.8597624      1.8730062
H       6.4955789      0.8371679      0.5363275
H       0.3568521      0.8618231      4.4624866
C       0.0550130      0.8170418      3.4207155
H      -1.2084306      2.5911098      2.9376770
H       2.2930156     -1.0134990      3.0967884
C      -0.7036442      1.6664534      2.6744243
H       1.2279744     -2.0751362      2.1240583
C       1.2621979     -1.3624187      2.9546383
N       0.4151461     -0.2286166      2.5956520
H      -4.7334981      0.7098248      3.9379855
H      -5.1797561     -1.6614768      4.5983627
C      -4.4103395     -0.1043573      3.2870850
C      -4.6690852     -1.4444633      3.6591097
N      -0.7880029      1.1166590      1.4074158
H       0.8783585     -1.8127586      3.8768016
C      -0.0885692     -0.0256086      1.3836006
C      -3.7637964      0.1857160      2.1065842
C      -4.2860134     -2.4661476      2.8221902
H      -0.7104247      3.6303935      0.6304663
H      -3.5972069      1.2280668      1.8312524
H      -4.4926263     -3.5063109      3.0838920
C      -1.5346308      1.6477986      0.3067616
C      -1.3726702      3.0219605      0.0130338
C      -3.3294066     -0.8498717      1.2303824
C      -3.6193449     -2.1969010      1.5980207
H       0.0749363     -0.6867676      0.5276970
C      -2.6365665     -0.5872210     -0.0019633
C      -3.2518738     -3.2486093      0.7112345
C      -2.3744317      0.8210605     -0.4159967
C      -2.0195696      3.5625608     -1.0658358
H      -3.4904954     -4.2777824      0.9873996
H      -1.8891967      4.6169844     -1.3149972
C      -2.6054017     -2.9805514     -0.4613772
C      -2.2674274     -1.6448150     -0.8205747
C      -3.0511888      1.3818595     -1.5502035
C      -2.8536446      2.7549765     -1.8845151
O      -1.6220206     -1.4770233     -1.9885885
H      -2.3122383     -3.7789071     -1.1421204
C      -3.9349293      0.6093622     -2.3564155
C      -3.5098312      3.3001503     -3.0225994
H      -4.1126003     -0.4343046     -2.0999674
H      -3.3410800      4.3501212     -3.2695693
C      -4.5569649      1.1644736     -3.4484856
C      -4.3378555      2.5218993     -3.7930693
H      -5.2268836      0.5552231     -4.0567889
H      -4.8343040      2.9459367     -4.6671012
H       1.3064831      2.2743997      0.1270663
C       3.6827799      1.3566077     -1.9369209
C       3.7944135      0.0913893     -2.6440676
C       1.6184765      0.3517088     -1.8900567
C       1.7856563      2.5824423     -0.8127086
C       2.5884870     -0.5610029     -2.5783806
N       2.3285980      1.4410574     -1.4972498
O       0.4145981      0.2128840     -1.6816223
O       4.4793959      2.2549150     -1.7535218
H       4.7150225     -0.2388568     -3.1181177
H       1.0427536      3.1017669     -1.4356270
H       2.2496795     -1.4115325     -3.1661090
H       2.6228524      3.2531969     -0.5851582
          85

O       0.5171258     -2.4711831     -0.1478322
C       1.5292879     -2.6418973     -0.8127227
O       1.5733610     -3.5505558     -1.8069881
C       0.3729017     -4.2741415     -2.0762517
C       0.6580204     -5.2400559     -3.2031484
C       2.7806422     -1.9226517     -0.7138209
N       2.9688285     -0.9673029      0.2151807
C       4.1472064     -0.4200876      0.2853553
C       4.4233514      0.7554685      1.1082133
C       3.4173732      1.3918322      1.8567968
C       3.6967975      2.5259263      2.6117930
C       4.9899324      3.0586898      2.6298764
C       5.9941569      2.4462500      1.8783701
C       5.7132414      1.3093784      1.1231018
H       0.0566017     -4.7973453     -1.1604925
H      -0.4162967     -3.5545395     -2.3375244
H      -0.2447127     -5.8205324     -3.4362239
H       1.4595148     -5.9377355     -2.9235658
H       0.9661693     -4.6988033     -4.1084447
H      -0.9040364     -0.8100929     -1.9200902
H       3.6323502     -2.3858951     -1.2230421
H       5.0001639     -0.8462062     -0.2674711
H       2.4081622      0.9824966      1.8146116
H       2.9007437      3.0051498      3.1859314
H       5.2098509      3.9501195      3.2195365
H       7.0039008      2.8609666      1.8769824
H       6.5001286      0.8405899      0.5276929
H       0.3607069      0.8579091      4.4590072
C       0.0576314      0.8138182      3.4175665
H      -1.2069829      2.5878585      2.9374525
H       2.2962576     -1.0124260      3.0936487
C      -0.7022196      1.6635741      2.6728677
H       1.2350508     -2.0749684      2.1178633
C       1.2664966     -1.3635964      2.9495286
N       0.4175046     -0.2309812      2.5913835
H      -4.7320630      0.7129081      3.9359039
H      -5.1793410     -1.6574978      4.5989772
C      -4.4093930     -0.1021599      3.2858729
C      -4.6687005     -1.4417175      3.6594241
N      -0.7876966      1.1146215      1.4055210
H       0.8821126     -1.8162806      3.8703492
C      -0.0877933     -0.0272101      1.3801834
C      -3.7629284      0.1863496      2.1049444
C      -4.2860925     -2.4644292      2.8235564
H      -0.7094499      3.6279074      0.6292190
H      -3.5960412      1.2283607      1.8285644
H      -4.4930528     -3.5042255      3.0864381
C      -1.5343607      1.6458005      0.3049471
C      -1.3720198      3.0199926      0.0116345
C      -3.3293677     -0.8502558      1.2295506
C      -3.6197326     -2.1967581      1.5988296
H       0.0740789     -0.6880212      0.5238405
C      -2.6372283     -0.5889735     -0.0036268
C      -3.2534329     -3.2495910      0.7128796
C      -2.3741739      0.8192056     -0.4181728
C      -2.0192009      3.5613112     -1.0666445
H      -3.4921115     -4.2784029      0.9903395
H      -1.8887947      4.6158367     -1.3153480
C      -2.6080991     -2.9829822     -0.4607132
C      -2.2698283     -1.6477588     -0.8213965
C      -3.0513620      1.3808925     -1.5518132
C      -2.8540535      2.7543671     -1.8850782
O      -1.6247542     -1.4817810     -1.9902605
H      -2.3156152     -3.7820158     -1.1410130
C      -3.9359521      0.6094167     -2.3581185
C      -3.5115045      3.3009418     -3.0217374
H      -4.1134079     -0.4345714     -2.1027843
H      -3.3428828      4.3511859     -3.2676267
C      -4.5592982      1.1659260     -3.4487842
C      -4.3406639      2.5237639     -3.7920306
H      -5.2299740      0.5574125     -4.0569940
H      -4.8382721      2.9488948     -4.6648705
H       1.3002408      2.2620226      0.1289258
C       3.6856056      1.3655431     -1.9372996
C       3.7990603      0.0952462     -2.6353495
C       1.6222106      0.3581499     -1.8884761
C       1.7850272      2.5850698     -0.8028963
C       2.5933671     -0.5586685     -2.5682481
N       2.3294836      1.4524084     -1.5012644
O       0.4184333      0.2149090     -1.6844105
O       4.4853476      2.2616083     -1.7574548
H       4.7213208     -0.2363139     -3.1053836
H       1.0463324      3.1159240     -1.4211411
H       2.2538640     -1.4109917     -3.1522293
H       2.6218031      3.2510735     -0.5595537
          85

O       0.5086662     -2.4679665     -0.1474046
C       1.5286666     -2.6458384     -0.8015191
O       1.5728603     -3.5540274     -1.7989891
C       0.3710861     -4.2710980     -2.0742052
C       0.6582548     -5.2380757     -3.1997887
C       2.7845890     -1.9469180     -0.6839034
N       2.9729791     -0.9746276      0.2208426
C       4.1510554     -0.4213672      0.2856673
C       4.4245898      0.7559414      1.1046395
C       3.4178133      1.3918302      1.8534826
C       3.6956101      2.5255459      2.6095189
C       4.9881267      3.0597616      2.6298089
C       5.9931339      2.4486280      1.8780383
C       5.7140602      1.3123578      1.1213812
H       0.0471968     -4.7937103     -1.1605790
H      -0.4146119     -3.5490604     -2.3394079
H      -0.2448608     -5.8159846     -3.4377003
H       1.4564285     -5.9379967     -2.9162702
H       0.9727871     -4.6977575     -4.1034827
H      -0.9066527     -0.8124977     -1.9212128
H       3.6319000     -2.3927560     -1.2178060
H       5.0041698     -0.8494103     -0.2655390
H       2.4090984      0.9812882      1.8113630
H       2.8983832      3.0030887      3.1835525
H       5.2069105      3.9504675      3.2209510
H       7.0027113      2.8639043      1.8780025
H       6.5024319      0.8446964      0.5269602
H       0.3633426      0.8568784      4.4569677
C       0.0594176      0.8125276      3.4157867
H      -1.2057066      2.5863959      2.9364002
H       2.2984647     -1.0145036      3.0868275
C      -0.7010900      1.6621073      2.6715681
H       1.2328958     -2.0778179      2.1166222
C       1.2679191     -1.3650779      2.9470266
N       0.4186677     -0.2323928      2.5895324
H      -4.7312065      0.7146209      3.9350252
H      -5.1785895     -1.6553738      4.5995034
C      -4.4088784     -0.1008499      3.2853320
C      -4.6682412     -1.4401722      3.6596577
N      -0.7874621      1.1128946      1.4043369
H       0.8860020     -1.8155838      3.8699296
C      -0.0875774     -0.0290436      1.3786817
C      -3.7627484      0.1868606      2.1040472
C      -4.2860823     -2.4634371      2.8242340
H      -0.7093321      3.6263335      0.6288809
H      -3.5957557      1.2286797      1.8270240
H      -4.4931308     -3.5030403      3.0878084
C      -1.5342201      1.6443025      0.3039800
C      -1.3718280      3.0186043      0.0110326
C      -3.3297136     -0.8503228      1.2291312
C      -3.6201271     -2.1966013      1.5990948
H       0.0733311     -0.6918491      0.5232207
C      -2.6380942     -0.5898028     -0.0044466
C      -3.2543293     -3.2499112      0.7134339
C      -2.3742792      0.8180990     -0.4193539
C      -2.0191066      3.5603973     -1.0669360
H      -3.4928318     -4.2785654      0.9916339
H      -1.8886849      4.6150215     -1.3152307
C      -2.6096171     -2.9839603     -0.4606744
C      -2.2716123     -1.6489153     -0.8219342
C      -3.0515938      1.3802818     -1.5527429
C      -2.8543163      2.7538951     -1.8854469
O      -1.6276032     -1.4827930     -1.9915985
H      -2.3171917     -3.7832233     -1.1407125
C      -3.9366391      0.6093231     -2.3590484
C      -3.5124638      3.3012263     -3.0213293
H      -4.1139676     -0.4348132     -2.1042533
H      -3.3439609      4.3516240     -3.2666449
C      -4.5606927      1.1665646     -3.4489483
C      -4.3422990      2.5246208     -3.7914673
H      -5.2318128      0.5584580     -4.0570746
H      -4.8405951      2.9503546     -4.6636176
H       1.2979170      2.2598572      0.1304310
C       3.6836838      1.3722701     -1.9336067
C       3.7983043      0.1000210     -2.6425854
C       1.6246043      0.3619857     -1.8954925
C       1.7860052      2.5865805     -0.7981215
C       2.5931951     -0.5403719     -2.5967757
N       2.3325759      1.4560001     -1.4990013
O       0.4227556      0.2167724     -1.6880620
O       4.4872329      2.2628870     -1.7553161
H       4.7224785     -0.2277510     -3.1117987
H       1.0502749      3.1198346     -1.4176578
H       2.2618081     -1.4137658     -3.1557719
H       2.6217718      3.2513947     -0.5485318
          85

O       0.5064649     -2.4614090     -0.1437044
C       1.5304258     -2.6463687     -0.7905641
O       1.5751986     -3.5597061     -1.7837123
C       0.3697193     -4.2680318     -2.0642589
C       0.6561015     -5.2375722     -3.1877429
C       2.7886495     -1.9549939     -0.6679932
N       2.9787717     -0.9772990      0.2281759
C       4.1570895     -0.4230696      0.2898286
C       4.4283887      0.7572161      1.1046048
C       3.4184536      1.3930228      1.8493671
C       3.6916020      2.5290854      2.6032203
C       4.9827756      3.0663976      2.6252886
C       5.9907560      2.4560862      1.8767382
C       5.7164012      1.3172586      1.1222130
H       0.0373295     -4.7879796     -1.1520775
H      -0.4098193     -3.5409074     -2.3337598
H      -0.2501744     -5.8080075     -3.4318538
H       1.4466242     -5.9440801     -2.8989196
H       0.9812747     -4.6997985     -4.0892716
H      -0.9094108     -0.8136137     -1.9207624
H       3.6339908     -2.3991625     -1.2078493
H       5.0102302     -0.8532260     -0.2596589
H       2.4108401      0.9800676      1.8055481
H       2.8917361      3.0060406      3.1741225
H       5.1981980      3.9588658      3.2149361
H       6.9992478      2.8740319      1.8777607
H       6.5073180      0.8502980      0.5305778
H       0.3708450      0.8552135      4.4510137
C       0.0647308      0.8104900      3.4104860
H      -1.2019692      2.5838671      2.9335449
H       2.3058891     -1.0166943      3.0678137
C      -0.6976543      1.6597000      2.6677469
H       1.2296616     -2.0841916      2.1145749
C       1.2734099     -1.3664747      2.9402437
N       0.4224988     -0.2345847      2.5838275
H      -4.7285843      0.7197480      3.9330924
H      -5.1756924     -1.6492576      4.6012539
C      -4.4074770     -0.0966591      3.2839752
C      -4.6667389     -1.4354597      3.6603285
N      -0.7865496      1.1101665      1.4007786
H       0.8991305     -1.8103749      3.8695191
C      -0.0864215     -0.0315689      1.3740604
C      -3.7628787      0.1891987      2.1014817
C      -4.2864675     -2.4600324      2.8256132
H      -0.7080202      3.6235440      0.6257896
H      -3.5956719      1.2305376      1.8228389
H      -4.4937278     -3.4991647      3.0908728
C      -1.5339338      1.6419532      0.3009828
C      -1.3711296      3.0162238      0.0082338
C      -3.3313593     -0.8494194      1.2275580
C      -3.6221225     -2.1951317      1.5991052
H       0.0726420     -0.6952318      0.5189296
C      -2.6401550     -0.5906584     -0.0064264
C      -3.2580555     -3.2493609      0.7137524
C      -2.3750056      0.8166149     -0.4221640
C      -2.0193882      3.5588217     -1.0687127
H      -3.4973249     -4.2775881      0.9928696
H      -1.8888413      4.6135330     -1.3165728
C      -2.6138301     -2.9849525     -0.4611491
C      -2.2744367     -1.6504694     -0.8229728
C      -3.0532651      1.3794660     -1.5547316
C      -2.8562184      2.7533169     -1.8865190
O      -1.6289836     -1.4844309     -1.9922247
H      -2.3228109     -3.7850702     -1.1408095
C      -3.9397006      0.6094844     -2.3605218
C      -3.5167940      3.3022316     -3.0202217
H      -4.1165131     -0.4350242     -2.1068307
H      -3.3486755      4.3529323     -3.2644984
C      -4.5661580      1.1682765     -3.4482994
C      -4.3487176      2.5268632     -3.7893389
H      -5.2385737      0.5609858     -4.0558151
H      -4.8492148      2.9538925     -4.6595957
H       1.2944723      2.2640795      0.1338368
C       3.6880843      1.3797561     -1.9231350
C       3.8051493      0.1057852     -2.6326697
C       1.6304277      0.3678000     -1.8909986
C       1.7902491      2.5924023     -0.7898072
C       2.6000578     -0.5310117     -2.5952632
N       2.3379167      1.4619812     -1.4902621
O       0.4287057      0.2213671     -1.6864638
O       4.4915378      2.2701163     -1.7461529
H       4.7306868     -0.2205684     -3.1003064
H       1.0611598      3.1306672     -1.4128404
H       2.2717931     -1.4086942     -3.1497848
H       2.6265010      3.2531579     -0.5316077
          85

O       0.5027019     -2.4583907     -0.1440821
C       1.5328498     -2.6522088     -0.7803265
O       1.5770906     -3.5673501     -1.7738981
C       0.3689210     -4.2673827     -2.0605239
C       0.6540156     -5.2381028     -3.1835457
C       2.7955007     -1.9768990     -0.6439301
N       2.9838051     -0.9851774      0.2353268
C       4.1603717     -0.4260656      0.2946929
C       4.4287378      0.7569191      1.1054700
C       3.4183682      1.3933272      1.8497012
C       3.6900531      2.5314882      2.6010222
C       4.9803455      3.0709488      2.6224591
C       5.9889745      2.4599490      1.8751511
C       5.7161332      1.3194492      1.1227975
H       0.0286573     -4.7864704     -1.1506626
H      -0.4056412     -3.5359906     -2.3328818
H      -0.2540811     -5.8042538     -3.4307946
H       1.4402657     -5.9483960     -2.8924484
H       0.9847121     -4.7018520     -4.0839444
H      -0.9120040     -0.8148914     -1.9225052
H       3.6374932     -2.4132003     -1.1939354
H       5.0145232     -0.8549680     -0.2547166
H       2.4113383      0.9787978      1.8077263
H       2.8893303      3.0081878      3.1710061
H       5.1945996      3.9647461      3.2105423
H       6.9971531      2.8787669      1.8755939
H       6.5080479      0.8523902      0.5325438
H       0.3734506      0.8552905      4.4488456
C       0.0666755      0.8101620      3.4085319
H      -1.1990263      2.5841924      2.9314028
H       2.3066842     -1.0200863      3.0617554
C      -0.6955117      1.6595360      2.6657959
H       1.2256486     -2.0877523      2.1151220
C       1.2732316     -1.3682072      2.9388831
N       0.4231091     -0.2356713      2.5822955
H      -4.7277655      0.7209959      3.9330299
H      -5.1753250     -1.6478198      4.6015402
C      -4.4070850     -0.0955587      3.2838903
C      -4.6666079     -1.4342592      3.6604346
N      -0.7856112      1.1092925      1.3991857
H       0.9010011     -1.8088587      3.8704002
C      -0.0862701     -0.0330620      1.3726444
C      -3.7627094      0.1899711      2.1012015
C      -4.2869008     -2.4590494      2.8257253
H      -0.7071800      3.6228570      0.6244216
H      -3.5951778      1.2312219      1.8223975
H      -4.4943859     -3.4980785      3.0912077
C      -1.5333189      1.6412955      0.2997378
C      -1.3705990      3.0156459      0.0070824
C      -3.3318055     -0.8489070      1.2273008
C      -3.6228572     -2.1945104      1.5989704
H       0.0720414     -0.6986688      0.5184119
C      -2.6410032     -0.5905970     -0.0069553
C      -3.2593172     -3.2489370      0.7136056
C      -2.3751856      0.8164012     -0.4230065
C      -2.0195198      3.5585735     -1.0693113
H      -3.4985868     -4.2770794      0.9930357
H      -1.8891199      4.6133712     -1.3168866
C      -2.6155353     -2.9848682     -0.4616378
C      -2.2763060     -1.6505003     -0.8236393
C      -3.0540674      1.3795454     -1.5550897
C      -2.8570104      2.7533952     -1.8867909
O      -1.6322088     -1.4842132     -1.9938022
H      -2.3247330     -3.7850014     -1.1413701
C      -3.9412115      0.6098293     -2.3603516
C      -3.5182769      3.3025992     -3.0199465
H      -4.1180531     -0.4346698     -2.1066776
H      -3.3501974      4.3533209     -3.2641618
C      -4.5682744      1.1688673     -3.4476439
C      -4.3508279      2.5274630     -3.7886263
H      -5.2411995      0.5617738     -4.0547894
H      -4.8518427      2.9547053     -4.6584740
H       1.2947961      2.2563718      0.1378337
C       3.6878720      1.3853483     -1.9230587
C       3.8031308      0.1149100     -2.6477035
C       1.6318746      0.3734380     -1.9003291
C       1.7916625      2.5910695     -0.7828259
C       2.5980062     -0.5147746     -2.6217483
N       2.3404644      1.4649920     -1.4900367
O       0.4319502      0.2237419     -1.6935844
O       4.4958726      2.2689547     -1.7399019
H       4.7301186     -0.2100762     -3.1136552
H       1.0636398      3.1328339     -1.4040450
H       2.2736980     -1.4013381     -3.1625616
H       2.6272584      3.2503223     -0.5186529
          85

O       0.5005828     -2.4533680     -0.1449474
C       1.5363491     -2.6572411     -0.7706553
O       1.5810650     -3.5789122     -1.7597260
C       0.3686412     -4.2678241     -2.0530872
C       0.6507122     -5.2394861     -3.1761562
C       2.8018660     -1.9938668     -0.6250364
N       2.9889330     -0.9917421      0.2410908
C       4.1641625     -0.4290135      0.2997278
C       4.4293944      0.7565247      1.1071773
C       3.4181716      1.3925313      1.8510162
C       3.6870672      2.5339865      2.5983709
C       4.9756743      3.0775490      2.6174497
C       5.9854988      2.4664847      1.8716621
C       5.7154588      1.3229754      1.1230002
H       0.0189656     -4.7856553     -1.1459358
H      -0.3989633     -3.5300130     -2.3281192
H      -0.2610016     -5.7974588     -3.4288974
H       1.4294143     -5.9570219     -2.8823109
H       0.9906412     -4.7047807     -4.0741095
H      -0.9161614     -0.8147959     -1.9249710
H       3.6414579     -2.4245566     -1.1831287
H       5.0193518     -0.8565484     -0.2495139
H       2.4122791      0.9751076      1.8115676
H       2.8851460      3.0099662      3.1673435
H       5.1877302      3.9738509      3.2025077
H       6.9926715      2.8877874      1.8703518
H       6.5086042      0.8564535      0.5339372
H       0.3767992      0.8547900      4.4457675
C       0.0691606      0.8093780      3.4057181
H      -1.1945527      2.5847782      2.9284742
H       2.3070686     -1.0253285      3.0541319
C      -0.6924398      1.6593134      2.6630375
H       1.2193742     -2.0930673      2.1152552
C       1.2721267     -1.3711291      2.9367175
N       0.4234643     -0.2375054      2.5799199
H      -4.7260873      0.7225816      3.9331882
H      -5.1747842     -1.6459760      4.6018032
C      -4.4061700     -0.0941418      3.2838861
C      -4.6663201     -1.4327159      3.6604920
N      -0.7843197      1.1082850      1.3968563
H       0.9022831     -1.8077361      3.8711601
C      -0.0864022     -0.0350139      1.3704328
C      -3.7621013      0.1909909      2.1009490
C      -4.2875197     -2.4577711      2.8256874
H      -0.7049115      3.6217428      0.6217095
H      -3.5939647      1.2321235      1.8220471
H      -4.4954758     -3.4966629      3.0913329
C      -1.5323796      1.6405877      0.2978271
C      -1.3691795      3.0148628      0.0049577
C      -3.3323213     -0.8482001      1.2268841
C      -3.6238658     -2.1936689      1.5986034
H       0.0709444     -0.7024060      0.5169712
C      -2.6422124     -0.5903342     -0.0077735
C      -3.2612886     -3.2482485      0.7129867
C      -2.3755700      0.8163522     -0.4241444
C      -2.0190364      3.5582484     -1.0706472
H      -3.5007768     -4.2762828      0.9926244
H      -1.8883843      4.6130202     -1.3182051
C      -2.6182050     -2.9845106     -0.4627781
C      -2.2788807     -1.6502772     -0.8248059
C      -3.0553470      1.3799097     -1.5555199
C      -2.8579607      2.7536742     -1.8872763
O      -1.6360154     -1.4836352     -1.9958371
H      -2.3281779     -3.7846693     -1.1428259
C      -3.9438101      0.6107315     -2.3598554
C      -3.5203328      3.3033931     -3.0195361
H      -4.1209234     -0.4337014     -2.1061194
H      -3.3520650      4.3540807     -3.2637681
C      -4.5718429      1.1702272     -3.4463551
C      -4.3541650      2.5287749     -3.7873615
H      -5.2457677      0.5635451     -4.0528050
H      -4.8560249      2.9564060     -4.6565314
H       1.2955035      2.2468603      0.1419007
C       3.6892626      1.3907374     -1.9232898
C       3.8024222      0.1234687     -2.6607241
C       1.6338840      0.3800508     -1.9089062
C       1.7963369      2.5897107     -0.7734078
C       2.5971161     -0.4999872     -2.6438228
N       2.3441592      1.4687654     -1.4900489
O       0.4352514      0.2283249     -1.7014967
O       4.5014533      2.2682058     -1.7343799
H       4.7301338     -0.2002995     -3.1262933
H       1.0723941      3.1398306     -1.3920196
H       2.2754328     -1.3924151     -3.1751823
H       2.6328335      3.2436516     -0.4992066
          85

O       0.5012624     -2.4475735     -0.1463729
C       1.5409312     -2.6606623     -0.7637870
O       1.5858602     -3.5914256     -1.7452486
C       0.3693130     -4.2711403     -2.0414277
C       0.6465770     -5.2460866     -3.1628343
C       2.8079190     -2.0037744     -0.6142629
N       2.9937407     -0.9945982      0.2433641
C       4.1680470     -0.4293825      0.3024078
C       4.4297654      0.7581252      1.1075553
C       3.4174207      1.3910548      1.8527536
C       3.6821049      2.5361853      2.5959146
C       4.9678001      3.0867598      2.6102386
C       5.9791060      2.4779714      1.8645019
C       5.7133195      1.3308094      1.1200076
H       0.0125665     -4.7855063     -1.1349888
H      -0.3921690     -3.5280222     -2.3192776
H      -0.2689656     -5.7965892     -3.4179157
H       1.4183165     -5.9699377     -2.8662937
H       0.9936501     -4.7149837     -4.0601525
H      -0.9185313     -0.8126691     -1.9261880
H       3.6466308     -2.4314003     -1.1766157
H       5.0243990     -0.8557697     -0.2461738
H       2.4135539      0.9686294      1.8168714
H       2.8789177      3.0096257      3.1652715
H       5.1765310      3.9861327      3.1917606
H       6.9842316      2.9041686      1.8597687
H       6.5076432      0.8666882      0.5306186
H       0.3792581      0.8529678      4.4419915
C       0.0712319      0.8078815      3.4020436
H      -1.1891440      2.5856575      2.9248009
H       2.3052780     -1.0324129      3.0490497
C      -0.6888742      1.6591849      2.6593983
H       1.2136285     -2.0978448      2.1124026
C       1.2693504     -1.3754663      2.9331903
N       0.4231804     -0.2399206      2.5764011
H      -4.7227295      0.7243585      3.9339283
H      -5.1733427     -1.6440416      4.6017601
C      -4.4042412     -0.0923750      3.2839393
C      -4.6654533     -1.4308855      3.6601147
N      -0.7822524      1.1079703      1.3933637
H       0.8994075     -1.8102281      3.8683606
C      -0.0864515     -0.0366230      1.3669554
C      -3.7608777      0.1926140      2.1006025
C      -4.2883983     -2.4560021      2.8245868
H      -0.6999500      3.6209605      0.6162915
H      -3.5917264      1.2336659      1.8219800
H      -4.4971870     -3.4947771      3.0900321
C      -1.5305541      1.6407383      0.2947597
C      -1.3658584      3.0146117      0.0008019
C      -3.3329008     -0.8467006      1.2258182
C      -3.6254020     -2.1920804      1.5970779
H       0.0702593     -0.7050143      0.5138763
C      -2.6432917     -0.5890196     -0.0090353
C      -3.2642512     -3.2465312      0.7107023
C      -2.3758746      0.8173845     -0.4257032
C      -2.0169342      3.5584087     -1.0738673
H      -3.5046576     -4.2744741      0.9898882
H      -1.8853929      4.6129276     -1.3220267
C      -2.6211918     -2.9829081     -0.4651864
C      -2.2808083     -1.6488192     -0.8264719
C      -3.0571687      1.3813809     -1.5559737
C      -2.8587900      2.7548009     -1.8884530
O      -1.6376577     -1.4816688     -1.9974590
H      -2.3322147     -3.7829944     -1.1457815
C      -3.9482886      0.6130877     -2.3582348
C      -3.5232049      3.3051836     -3.0191924
H      -4.1260414     -0.4311178     -2.1039576
H      -3.3542631      4.3556404     -3.2639557
C      -4.5782814      1.1732253     -3.4432789
C      -4.3598800      2.5315061     -3.7848828
H      -5.2543521      0.5672726     -4.0480690
H      -4.8633843      2.9596790     -4.6528319
H       1.2973062      2.2403685      0.1440750
C       3.6928723      1.3951441     -1.9242056
C       3.8033023      0.1301448     -2.6703304
C       1.6370414      0.3870246     -1.9141477
C       1.8048876      2.5901660     -0.7647310
C       2.5975316     -0.4881851     -2.6587641
N       2.3498136      1.4730789     -1.4897814
O       0.4391489      0.2350371     -1.7059042
O       4.5085882      2.2679586     -1.7322715
H       4.7307115     -0.1928788     -3.1371607
H       1.0877287      3.1510483     -1.3815703
H       2.2764322     -1.3848081     -3.1845096
H       2.6436618      3.2361342     -0.4788009
          85

O       0.5023701     -2.4457430     -0.1463416
C       1.5427986     -2.6612587     -0.7618755
O       1.5876198     -3.5948951     -1.7407939
C       0.3699946     -4.2726699     -2.0365791
C       0.6459099     -5.2503316     -3.1559556
C       2.8099849     -2.0053827     -0.6121424
N       2.9954837     -0.9946950      0.2437039
C       4.1694293     -0.4286149      0.3028298
C       4.4297530      0.7596886      1.1071894
C       3.4169978      1.3907903      1.8534358
C       3.6798936      2.5372440      2.5951764
C       4.9642420      3.0910700      2.6071560
C       5.9760187      2.4839135      1.8607128
C       5.7120393      1.3353732      1.1176835
H       0.0114026     -4.7845670     -1.1294638
H      -0.3898357     -3.5285297     -2.3163055
H      -0.2706972     -5.7991483     -3.4107026
H       1.4157054     -5.9754670     -2.8575291
H       0.9949207     -4.7217255     -4.0539956
H      -0.9185582     -0.8114953     -1.9262089
H       3.6486346     -2.4326102     -1.1751691
H       5.0262017     -0.8544698     -0.2455559
H       2.4140853      0.9659930      1.8192306
H       2.8763019      3.0092100      3.1652044
H       5.1715752      3.9915559      3.1874703
H       6.9801206      2.9125395      1.8542024
H       6.5066933      0.8727241      0.5275817
H       0.3794608      0.8523237      4.4407234
C       0.0716189      0.8074996      3.4007119
H      -1.1873039      2.5862587      2.9232780
H       2.3040671     -1.0347124      3.0487710
C      -0.6876633      1.6594261      2.6579406
H       1.2122211     -2.0988982      2.1110365
C       1.2680041     -1.3768773      2.9320677
N       0.4229315     -0.2405520      2.5751093
H      -4.7211876      0.7252111      3.9340927
H      -5.1727819     -1.6431541      4.6013590
C      -4.4033316     -0.0914863      3.2837467
C      -4.6650894     -1.4299870      3.6596099
N      -0.7812034      1.1083124      1.3918599
H       0.8971192     -1.8116609      3.8667982
C      -0.0862364     -0.0367790      1.3655553
C      -3.7602134      0.1935157      2.1002867
C      -4.2888143     -2.4550724      2.8236874
H      -0.6974423      3.6210364      0.6136595
H      -3.5905663      1.2345497      1.8218811
H      -4.4980363     -3.4938127      3.0889307
C      -1.5295178      1.6412378      0.2933459
C      -1.3641198      3.0149007     -0.0012044
C      -3.3329701     -0.8457954      1.2251436
C      -3.6259902     -2.1911507      1.5960769
H       0.0704301     -0.7053099      0.5125512
C      -2.6433582     -0.5881211     -0.0096564
C      -3.2653792     -3.2454953      0.7093509
C      -2.3757410      0.8182078     -0.4264087
C      -2.0157336      3.5588054     -1.0755018
H      -3.5063392     -4.2734038      0.9881933
H      -1.8837271      4.6131741     -1.3240536
C      -2.6220151     -2.9818670     -0.4663981
C      -2.2809617     -1.6478372     -0.8272066
C      -3.0578285      1.3823572     -1.5561306
C      -2.8590157      2.7556029     -1.8890320
O      -1.6372169     -1.4805101     -1.9978845
H      -2.3333976     -3.7819035     -1.1472117
C      -3.9502996      0.6144446     -2.3572713
C      -3.5245301      3.3062422     -3.0190069
H      -4.1283050     -0.4296468     -2.1026677
H      -3.3552802      4.3565717     -3.2641060
C      -4.5814184      1.1748572     -3.4415306
C      -4.3627060      2.5329943     -3.7835091
H      -5.2586251      0.5692398     -4.0453956
H      -4.8671307      2.9613968     -4.6508148
H       1.2988411      2.2396987      0.1443879
C       3.6947129      1.3963934     -1.9248573
C       3.8040691      0.1317363     -2.6724723
C       1.6385369      0.3893662     -1.9147455
C       1.8086822      2.5911212     -0.7624956
C       2.5980713     -0.4852390     -2.6614574
N       2.3522421      1.4747386     -1.4897050
O       0.4408189      0.2376013     -1.7059214
O       4.5113951      2.2681335     -1.7328218
H       4.7311153     -0.1913568     -3.1399915
H       1.0938872      3.1554958     -1.3789585
H       2.2766144     -1.3826147     -3.1861899
H       2.6484517      3.2343177     -0.4731483
