          85

O      -1.4932628      2.2898698     -0.9173884
C      -2.6760632      2.0996900     -1.0592983
O      -3.5624416      3.0781249     -1.2473154
C      -3.0930238      4.4285228     -1.1801923
C      -4.1562725      5.3191325     -1.7772175
C      -3.3765720      0.7638715     -1.0015505
N      -2.5128558     -0.3276636     -1.2719629
C      -3.1582688     -1.4411554     -1.4406052
C      -2.5732696     -2.7893921     -1.3804656
C      -3.3330014     -3.8671250     -1.8597698
C      -2.8478759     -5.1709649     -1.7828681
C      -1.5969940     -5.4156111     -1.2131050
C      -0.8426627     -4.3514673     -0.7145798
C      -1.3275611     -3.0485447     -0.7880060
H      -2.9117234      4.6770500     -0.1237719
H      -2.1381213      4.5038702     -1.7190084
H      -3.8460533      6.3699016     -1.7040445
H      -5.1074375      5.1970625     -1.2413842
H      -4.3150716      5.0731092     -2.8360018
H      -1.0486864     -0.1801388     -0.8053201
H      -4.2628182      0.8007277     -1.6581095
H      -4.2049183     -1.4108049     -1.7730803
H      -4.3158582     -3.6760293     -2.2974108
H      -3.4479422     -5.9988728     -2.1639247
H      -1.2152431     -6.4360640     -1.1478541
H       0.1292321     -4.5356061     -0.2516415
H      -0.7416333     -2.2285725     -0.3738027
H       1.9064853      4.7971199      2.7472785
C       1.7220225      3.7734003      2.4372829
H       3.3934884      2.4677686      3.1370925
H      -0.5584669      5.1202084      2.0241997
C       2.4483898      2.6381495      2.6308046
H      -1.3991520      3.7128218      1.2761565
C      -0.4782490      4.3045899      1.2981387
N       0.5993331      3.4156418      1.7214788
H       6.6677844      1.2538217     -0.8994914
H       6.3325332      2.2591732     -3.1629327
C       5.6681691      1.2789131     -1.3369232
C       5.4796714      1.8485394     -2.6206347
N       1.7503980      1.6139473      2.0205246
H      -0.2590780      4.7034801      0.3006038
C       0.6349665      2.1110825      1.4741697
C       4.6039429      0.7567510     -0.6381650
C       4.2221056      1.8782642     -3.1780233
H       2.0800135      0.1615670      4.1881831
H       4.7588248      0.3185200      0.3500922
H       4.0641360      2.3115739     -4.1683756
C       2.1194289      0.2280508      2.0181228
C       2.2430491     -0.4139511      3.2758912
C       3.2903498      0.7793231     -1.1879432
C       3.1027286      1.3472438     -2.4835159
H      -0.1317627      1.5439004      0.9421236
C       2.1627547      0.2537774     -0.4931364
C       1.7934711      1.3586160     -3.0462736
C       2.3023115     -0.4310089      0.8215842
C       2.5364805     -1.7506889      3.3234926
H       1.6556354      1.7855571     -4.0421729
H       2.6261946     -2.2613554      4.2837228
C       0.7195181      0.8542391     -2.3629262
C       0.8970468      0.2963542     -1.0616781
C       2.5895973     -1.8352263      0.8654902
C       2.7062533     -2.4960002      2.1236115
O      -0.1133043     -0.1814787     -0.3460940
H      -0.2854510      0.8729521     -2.7851954
C       2.7506404     -2.5960189     -0.3263818
C       2.9830582     -3.8902852      2.1526427
H       2.6532533     -2.0953140     -1.2905876
H       3.0692938     -4.3867261      3.1211635
C       3.0182072     -3.9431745     -0.2661675
C       3.1362777     -4.5985692      0.9851495
H       3.1357189     -4.5145549     -1.1881442
H       3.3480851     -5.6682787      1.0174274
H      -1.4572940     -1.8575377      3.0907837
C      -3.4599404     -1.5748951      1.4154531
C      -4.4487426     -0.8612647      0.7109036
C      -2.8066422      0.6504157      1.4445603
C      -1.2492909     -0.9410193      2.5248669
C      -4.0028920      0.5289488      0.5142769
N      -2.4255581     -0.6048189      1.7641016
O      -2.2620988      1.6907200      1.7976376
O      -3.3260320     -2.7463748      1.7601583
H      -5.3884787     -1.2973401      0.3849294
H      -1.0104492     -0.1165558      3.2124847
H      -4.7222009      1.3468170      0.6714874
H      -0.3872434     -1.1124614      1.8610414
          85

O      -1.4895500      2.2920965     -0.9138854
C      -2.6716296      2.0997282     -1.0606350
O      -3.5579555      3.0776745     -1.2529876
C      -3.0924645      4.4286886     -1.1779016
C      -4.1555967      5.3186800     -1.7761534
C      -3.3735693      0.7644399     -1.0036285
N      -2.5139233     -0.3292014     -1.2715632
C      -3.1599962     -1.4423735     -1.4406117
C      -2.5747166     -2.7904983     -1.3801979
C      -3.3337275     -3.8689767     -1.8590190
C      -2.8476061     -5.1724953     -1.7821456
C      -1.5964077     -5.4163597     -1.2127582
C      -0.8426724     -4.3515481     -0.7147680
C      -1.3285256     -3.0489922     -0.7883014
H      -2.9168489      4.6731535     -0.1196466
H      -2.1354033      4.5091554     -1.7119538
H      -3.8481473      6.3699488     -1.6991377
H      -5.1083602      5.1929135     -1.2441179
H      -4.3100274      5.0750557     -2.8360955
H      -1.0481410     -0.1813470     -0.8053806
H      -4.2611734      0.8027451     -1.6581278
H      -4.2072392     -1.4114024     -1.7712248
H      -4.3168438     -3.6787633     -2.2964620
H      -3.4472512     -6.0008021     -2.1630058
H      -1.2139697     -6.4365540     -1.1474874
H       0.1295352     -4.5348382     -0.2521493
H      -0.7428286     -2.2287013     -0.3744732
H       1.9059853      4.7972125      2.7468292
C       1.7214155      3.7733643      2.4368837
H       3.3929658      2.4676692      3.1366534
H      -0.5586329      5.1205051      2.0240821
C       2.4477125      2.6380984      2.6304128
H      -1.3998766      3.7133455      1.2762222
C      -0.4787895      4.3048413      1.2980029
N       0.5986550      3.4156570      1.7212072
H       6.6676930      1.2539284     -0.8993100
H       6.3325067      2.2592067     -3.1627698
C       5.6680976      1.2789561     -1.3367878
C       5.4796252      1.8485486     -2.6205208
N       1.7496155      1.6138854      2.0202905
H      -0.2596858      4.7036150      0.3004043
C       0.6341001      2.1110577      1.4740401
C       4.6038606      0.7567516     -0.6380923
C       4.2221004      1.8782394     -3.1779947
H       2.0795796      0.1615791      4.1880193
H       4.7586771      0.3185274      0.3501768
H       4.0641724      2.3115524     -4.1683508
C       2.1189184      0.2280431      2.0179519
C       2.2426833     -0.4139213      3.2757268
C       3.2903117      0.7793283     -1.1879601
C       3.1026873      1.3472599     -2.4835191
H      -0.1328075      1.5440403      0.9420371
C       2.1626948      0.2537877     -0.4932202
C       1.7934120      1.3589006     -3.0462203
C       2.3021187     -0.4310248      0.8214750
C       2.5363543     -1.7506138      3.3233560
H       1.6555699      1.7860084     -4.0420421
H       2.6261976     -2.2612178      4.2836075
C       0.7194216      0.8546446     -2.3628459
C       0.8970684      0.2964403     -1.0618193
C       2.5894749     -1.8352216      0.8653780
C       2.7061773     -2.4959684      2.1235043
O      -0.1131705     -0.1817929     -0.3462706
H      -0.2855422      0.8735523     -2.7851404
C       2.7504584     -2.5960219     -0.3264964
C       2.9830806     -3.8902362      2.1525410
H       2.6529747     -2.0953460     -1.2907077
H       3.0693930     -4.3866648      3.1210609
C       3.0180825     -3.9431655     -0.2662778
C       3.1362881     -4.5985239      0.9850452
H       3.1355339     -4.5145616     -1.1882520
H       3.3481706     -5.6682184      1.0173271
H      -1.4528782     -1.8540492      3.0896405
C      -3.4588289     -1.5745539      1.4154178
C      -4.4528255     -0.8600326      0.7175930
C      -2.8105529      0.6514036      1.4472194
C      -1.2463778     -0.9397190      2.5196830
C      -4.0083649      0.5289551      0.5201110
N      -2.4254151     -0.6040561      1.7627526
O      -2.2662983      1.6918169      1.8000437
O      -3.3217814     -2.7469482      1.7550406
H      -5.3931447     -1.2972041      0.3947501
H      -1.0041516     -0.1132102      3.2036288
H      -4.7269519      1.3482417      0.6718186
H      -0.3870357     -1.1142108      1.8532976
          85

O      -1.4792620      2.3008303     -0.9075777
C      -2.6592232      2.1004469     -1.0686747
O      -3.5485790      3.0767894     -1.2632225
C      -3.0919084      4.4290872     -1.1725132
C      -4.1548139      5.3173913     -1.7741097
C      -3.3618021      0.7671074     -1.0193215
N      -2.5158744     -0.3321904     -1.2747157
C      -3.1639204     -1.4454162     -1.4415973
C      -2.5775217     -2.7926034     -1.3791591
C      -3.3345947     -3.8727074     -1.8575714
C      -2.8467319     -5.1756028     -1.7808198
C      -1.5951873     -5.4183716     -1.2117953
C      -0.8424913     -4.3521104     -0.7153125
C      -1.3299564     -3.0501242     -0.7890370
H      -2.9275498      4.6665401     -0.1108610
H      -2.1304416      4.5198616     -1.6968332
H      -3.8522816      6.3696498     -1.6916318
H      -5.1105549      5.1858940     -1.2488970
H      -4.3014131      5.0766915     -2.8358076
H      -1.0457228     -0.1837344     -0.8060535
H      -4.2597575      0.8060042     -1.6543224
H      -4.2124239     -1.4131318     -1.7682988
H      -4.3179481     -3.6841499     -2.2951982
H      -3.4456173     -6.0044403     -2.1617722
H      -1.2116309     -6.4381230     -1.1462483
H       0.1304804     -4.5337197     -0.2535950
H      -0.7441349     -2.2294388     -0.3762907
H       1.9048879      4.7971309      2.7459917
C       1.7201516      3.7732843      2.4361413
H       3.3916437      2.4674331      3.1357526
H      -0.5604988      5.1199121      2.0247074
C       2.4463218      2.6379573      2.6296696
H      -1.4008467      3.7142815      1.2731511
C      -0.4797379      4.3054652      1.2973783
N       0.5972916      3.4157099      1.7205923
H       6.6674801      1.2541512     -0.8988168
H       6.3324258      2.2593317     -3.1622769
C       5.6679333      1.2790393     -1.3364056
C       5.4794996      1.8485767     -2.6201675
N       1.7480286      1.6137655      2.0197326
H      -0.2593901      4.7055485      0.3006459
C       0.6324051      2.1110917      1.4735291
C       4.6036512      0.7567546     -0.6378821
C       4.2220743      1.8781610     -3.1778797
H       2.0788057      0.1616107      4.1876715
H       4.7582660      0.3185534      0.3504253
H       4.0642694      2.3114968     -4.1682438
C       2.1178901      0.2280487      2.0175861
C       2.2419835     -0.4138637      3.2753722
C       3.2902521      0.7793231     -1.1880064
C       3.1025713      1.3471787     -2.4835601
H      -0.1349514      1.5446818      0.9414341
C       2.1626310      0.2537943     -0.4933816
C       1.7932366      1.3592697     -3.0461412
C       2.3017125     -0.4310709      0.8212565
C       2.5361079     -1.7504782      3.3230646
H       1.6553493      1.7867327     -4.0417933
H       2.6262687     -2.2609433      4.2833620
C       0.7191569      0.8554722     -2.3625983
C       0.8972500      0.2967039     -1.0620409
C       2.5891310     -1.8352372      0.8651420
C       2.7059649     -2.4959367      2.1232708
O      -0.1127153     -0.1823069     -0.3462498
H      -0.2858776      0.8752677     -2.7846907
C       2.7499957     -2.5960345     -0.3267455
C       2.9831163     -3.8901610      2.1523018
H       2.6522778     -2.0954167     -1.2909635
H       3.0696304     -4.3865693      3.1208137
C       3.0178087     -3.9431380     -0.2665342
C       3.1363292     -4.5984332      0.9847907
H       3.1351520     -4.5145486     -1.1885113
H       3.3484214     -5.6680865      1.0170635
H      -1.4431170     -1.8470865      3.0884519
C      -3.4550536     -1.5741748      1.4174286
C      -4.4645564     -0.8569521      0.7367903
C      -2.8226133      0.6528138      1.4550329
C      -1.2401688     -0.9372065      2.5101289
C      -4.0284634      0.5271266      0.5421714
N      -2.4249760     -0.6039385      1.7599026
O      -2.2745955      1.6922197      1.8028069
O      -3.3136808     -2.7487172      1.7441204
H      -5.4069085     -1.2983213      0.4254824
H      -0.9931195     -0.1061617      3.1867494
H      -4.7412383      1.3513777      0.6628093
H      -0.3853038     -1.1168672      1.8397353
          85

O      -1.4727497      2.3073320     -0.9031962
C      -2.6501934      2.1009337     -1.0789453
O      -3.5444999      3.0767587     -1.2671237
C      -3.0919926      4.4289465     -1.1697613
C      -4.1546794      5.3167462     -1.7732157
C      -3.3460432      0.7711389     -1.0482660
N      -2.5164273     -0.3329076     -1.2786018
C      -3.1662852     -1.4471759     -1.4425415
C      -2.5788686     -2.7931662     -1.3782680
C      -3.3345356     -3.8743247     -1.8570852
C      -2.8461144     -5.1769519     -1.7802171
C      -1.5945981     -5.4196542     -1.2111174
C      -0.8423793     -4.3525935     -0.7156121
C      -1.3303028     -3.0507493     -0.7895643
H      -2.9320663      4.6649407     -0.1069793
H      -2.1283065      4.5238393     -1.6894567
H      -3.8541718      6.3694801     -1.6890233
H      -5.1117930      5.1833264     -1.2509290
H      -4.2982051      5.0767948     -2.8355354
H      -1.0437737     -0.1840008     -0.8059671
H      -4.2597081      0.8064259     -1.6609007
H      -4.2138990     -1.4133548     -1.7718918
H      -4.3177642     -3.6865084     -2.2953307
H      -3.4447658     -6.0058576     -2.1614833
H      -1.2107282     -6.4392565     -1.1452527
H       0.1310138     -4.5333571     -0.2543760
H      -0.7438749     -2.2301123     -0.3776024
H       1.9043170      4.7970747      2.7455674
C       1.7195133      3.7732237      2.4357688
H       3.3910240      2.4673527      3.1353168
H      -0.5619022      5.1190966      2.0255083
C       2.4456606      2.6378973      2.6293176
H      -1.4010203      3.7142908      1.2702450
C      -0.4802481      4.3057479      1.2970391
N       0.5966056      3.4156851      1.7202933
H       6.6673248      1.2542335     -0.8985050
H       6.3323484      2.2593900     -3.1619930
C       5.6678101      1.2790618     -1.3361704
C       5.4794166      1.8485789     -2.6199360
N       1.7472617      1.6136930      2.0194716
H      -0.2591697      4.7064076      0.3007167
C       0.6315859      2.1111131      1.4731651
C       4.6034811      0.7567432     -0.6377574
C       4.2220345      1.8781187     -3.1777912
H       2.0785243      0.1616486      4.1874906
H       4.7579631      0.3185520      0.3505759
H       4.0643763      2.3114876     -4.1681637
C       2.1174036      0.2280652      2.0174176
C       2.2416911     -0.4138543      3.2752048
C       3.2901919      0.7793170     -1.1880344
C       3.1024765      1.3471234     -2.4835903
H      -0.1360721      1.5454632      0.9405863
C       2.1625875      0.2538029     -0.4934721
C       1.7930853      1.3593590     -3.0461154
C       2.3014731     -0.4310936      0.8211482
C       2.5360113     -1.7504380      3.3229285
H       1.6552050      1.7870316     -4.0416783
H       2.6263892     -2.2608433      4.2832405
C       0.7189604      0.8558659     -2.3624865
C       0.8973744      0.2969178     -1.0621375
C       2.5889053     -1.8352546      0.8650247
C       2.7058383     -2.4959397      2.1231490
O      -0.1122596     -0.1825597     -0.3459722
H      -0.2862116      0.8767428     -2.7841275
C       2.7497307     -2.5960454     -0.3268712
C       2.9831343     -3.8901378      2.1521728
H       2.6518606     -2.0954400     -1.2910793
H       3.0697829     -4.3865356      3.1206799
C       3.0176694     -3.9431210     -0.2666694
C       3.1363545     -4.5983932      0.9846511
H       3.1349575     -4.5145362     -1.1886495
H       3.3485697     -5.6680234      1.0169091
H      -1.4373684     -1.8443164      3.0888399
C      -3.4497087     -1.5740125      1.4197784
C      -4.4723573     -0.8544120      0.7498966
C      -2.8317202      0.6531966      1.4617403
C      -1.2364784     -0.9365868      2.5063259
C      -4.0512929      0.5230206      0.5743692
N      -2.4238796     -0.6056384      1.7583433
O      -2.2778947      1.6909955      1.8026195
O      -3.3107175     -2.7493414      1.7382519
H      -5.4164353     -1.2998615      0.4499215
H      -0.9893571     -0.1029927      3.1797346
H      -4.7604461      1.3539916      0.6639545
H      -0.3825937     -1.1177471      1.8353692
          85

O      -1.4673593      2.3125807     -0.8995755
C      -2.6431072      2.1009840     -1.0878995
O      -3.5417894      3.0768493     -1.2695087
C      -3.0922529      4.4286290     -1.1678074
C      -4.1546604      5.3162518     -1.7726387
C      -3.3292564      0.7757539     -1.0800135
N      -2.5168934     -0.3329147     -1.2811678
C      -3.1678920     -1.4486829     -1.4437059
C      -2.5796977     -2.7933567     -1.3779037
C      -3.3342964     -3.8755084     -1.8570071
C      -2.8456040     -5.1779293     -1.7797363
C      -1.5941727     -5.4207173     -1.2104703
C      -0.8423074     -4.3529980     -0.7158080
C      -1.3303645     -3.0512441     -0.7901984
H      -2.9349068      4.6644050     -0.1044715
H      -2.1273304      4.5267551     -1.6848062
H      -3.8555208      6.3692953     -1.6871487
H      -5.1127574      5.1814967     -1.2524408
H      -4.2960320      5.0768824     -2.8354014
H      -1.0420456     -0.1838350     -0.8056813
H      -4.2612456      0.8056624     -1.6620300
H      -4.2142871     -1.4131873     -1.7765981
H      -4.3173349     -3.6882217     -2.2959309
H      -3.4441658     -6.0068750     -2.1611728
H      -1.2101642     -6.4402240     -1.1441877
H       0.1313650     -4.5331148     -0.2548232
H      -0.7433060     -2.2307178     -0.3789226
H       1.9038376      4.7970420      2.7451346
C       1.7189750      3.7731714      2.4354349
H       3.3905263      2.4673291      3.1349335
H      -0.5632751      5.1182783      2.0262154
C       2.4451142      2.6378559      2.6290207
H      -1.4011613      3.7142063      1.2674348
C      -0.4806962      4.3059086      1.2967498
N       0.5960144      3.4156258      1.7200572
H       6.6671451      1.2542753     -0.8982012
H       6.3323068      2.2594166     -3.1616742
C       5.6676638      1.2790639     -1.3359419
C       5.4793269      1.8485710     -2.6197129
N       1.7466273      1.6136182      2.0192899
H      -0.2587128      4.7076041      0.3010725
C       0.6309133      2.1110836      1.4728886
C       4.6032853      0.7567267     -0.6376367
C       4.2219969      1.8780897     -3.1777046
H       2.0783673      0.1616520      4.1873748
H       4.7576430      0.3185415      0.3507177
H       4.0644086      2.3114790     -4.1680805
C       2.1169891      0.2280629      2.0172909
C       2.2414579     -0.4138614      3.2750785
C       3.2900967      0.7793110     -1.1880642
C       3.1023779      1.3470794     -2.4836211
H      -0.1369885      1.5461291      0.9398192
C       2.1624978      0.2538126     -0.4935609
C       1.7929676      1.3594310     -3.0461483
C       2.3012194     -0.4311182      0.8210547
C       2.5359408     -1.7504208      3.3228166
H       1.6550896      1.7872448     -4.0416467
H       2.6265301     -2.2607775      4.2831376
C       0.7187738      0.8561765     -2.3624491
C       0.8974406      0.2971023     -1.0622474
C       2.5886824     -1.8352733      0.8649206
C       2.7057246     -2.4959485      2.1230426
O      -0.1118791     -0.1827492     -0.3457102
H      -0.2864751      0.8777614     -2.7838802
C       2.7494925     -2.5960552     -0.3269804
C       2.9831499     -3.8901222      2.1520596
H       2.6514924     -2.0954731     -1.2911863
H       3.0699255     -4.3865069      3.1205636
C       3.0175513     -3.9431039     -0.2667852
C       3.1363732     -4.5983610      0.9845284
H       3.1348001     -4.5145160     -1.1887701
H       3.3486962     -5.6679710      1.0167697
H      -1.4329837     -1.8425453      3.0895908
C      -3.4440171     -1.5739706      1.4221928
C      -4.4788401     -0.8514683      0.7603901
C      -2.8389491      0.6534645      1.4668756
C      -1.2337557     -0.9363422      2.5040462
C      -4.0737630      0.5182501      0.6093002
N      -2.4228056     -0.6076893      1.7571395
O      -2.2799204      1.6896828      1.8018439
O      -3.3091692     -2.7495476      1.7338026
H      -5.4232898     -1.3011300      0.4680375
H      -0.9876044     -0.1008679      3.1754169
H      -4.7762635      1.3559062      0.6614155
H      -0.3801213     -1.1180869      1.8331840
          85

O      -1.4620478      2.3177166     -0.8962150
C      -2.6362912      2.1008942     -1.0955777
O      -3.5393910      3.0768497     -1.2716580
C      -3.0926350      4.4280956     -1.1661796
C      -4.1547413      5.3157641     -1.7721546
C      -3.3120054      0.7807435     -1.1116872
N      -2.5174147     -0.3328004     -1.2824284
C      -3.1689009     -1.4501295     -1.4454214
C      -2.5802661     -2.7934748     -1.3781719
C      -3.3339553     -3.8767035     -1.8573059
C      -2.8450759     -5.1789302     -1.7792148
C      -1.5937698     -5.4217722     -1.2096561
C      -0.8422600     -4.3533439     -0.7159250
C      -1.3303266     -3.0517036     -0.7911109
H      -2.9375654      4.6639275     -0.1024041
H      -2.1265930      4.5293075     -1.6806743
H      -3.8568868      6.3690639     -1.6850960
H      -5.1138032      5.1796443     -1.2540349
H      -4.2940569      5.0773017     -2.8354061
H      -1.0404857     -0.1835098     -0.8051990
H      -4.2620498      0.8054016     -1.6621918
H      -4.2142683     -1.4128299     -1.7812427
H      -4.3167722     -3.6899889     -2.2969982
H      -3.4435885     -6.0079931     -2.1605989
H      -1.2096975     -6.4411866     -1.1426960
H       0.1315956     -4.5327818     -0.2549664
H      -0.7426980     -2.2312465     -0.3805308
H       1.9032632      4.7970154      2.7445148
C       1.7183367      3.7731034      2.4349911
H       3.3899786      2.4673485      3.1344475
H      -0.5647650      5.1173956      2.0267763
C       2.4444893      2.6378207      2.6286611
H      -1.4013539      3.7140942      1.2644517
C      -0.4812647      4.3060032      1.2963876
N       0.5952863      3.4154972      1.7197985
H       6.6668694      1.2542789     -0.8977848
H       6.3322043      2.2594426     -3.1613106
C       5.6674378      1.2790460     -1.3356390
C       5.4792064      1.8485540     -2.6194150
N       1.7458877      1.6135051      2.0191440
H      -0.2583524      4.7086552      0.3013864
C       0.6301140      2.1109772      1.4726581
C       4.6029824      0.7566976     -0.6374754
C       4.2219437      1.8780612     -3.1775832
H       2.0782169      0.1616324      4.1872567
H       4.7571824      0.3185115      0.3509026
H       4.0645525      2.3114974     -4.1679658
C       2.1164855      0.2280330      2.0171626
C       2.2411964     -0.4138964      3.2749464
C       3.2899174      0.7793056     -1.1880932
C       3.1022420      1.3470372     -2.4836606
H      -0.1379669      1.5467580      0.9389678
C       2.1623069      0.2538274     -0.4936850
C       1.7928334      1.3595007     -3.0462489
C       2.3008386     -0.4311507      0.8209360
C       2.5358733     -1.7504223      3.3226931
H       1.6550018      1.7874757     -4.0416795
H       2.6267266     -2.2607314      4.2830173
C       0.7185443      0.8564912     -2.3625178
C       0.8974327      0.2973066     -1.0624466
C       2.5883801     -1.8352955      0.8647952
C       2.7055861     -2.4959617      2.1229131
O      -0.1115428     -0.1829115     -0.3455217
H      -0.2867906      0.8788870     -2.7837118
C       2.7491993     -2.5960664     -0.3271088
C       2.9831708     -3.8901045      2.1519216
H       2.6510513     -2.0955078     -1.2913109
H       3.0701006     -4.3864696      3.1204233
C       3.0174136     -3.9430820     -0.2669225
C       3.1363896     -4.5983267      0.9843807
H       3.1346353     -4.5144848     -1.1889143
H       3.3488369     -5.6679130      1.0166025
H      -1.4291526     -1.8412494      3.0901559
C      -3.4382111     -1.5740514      1.4247007
C      -4.4851462     -0.8480399      0.7708606
C      -2.8451347      0.6537825      1.4713397
C      -1.2313571     -0.9361559      2.5023616
C      -4.0955231      0.5137142      0.6457599
N      -2.4215933     -0.6098635      1.7559591
O      -2.2814011      1.6885807      1.8006632
O      -3.3081683     -2.7497999      1.7297279
H      -5.4282179     -1.3025249      0.4815481
H      -0.9867385     -0.0992069      3.1723768
H      -4.7900800      1.3578392      0.6597119
H      -0.3775917     -1.1177566      1.8318815
          85

O      -1.4559041      2.3238796     -0.8933987
C      -2.6288379      2.1006696     -1.1015886
O      -3.5366962      3.0762577     -1.2746587
C      -3.0934040      4.4272193     -1.1646279
C      -4.1550222      5.3152792     -1.7716912
C      -3.2935548      0.7858596     -1.1403357
N      -2.5177304     -0.3328368     -1.2817480
C      -3.1695468     -1.4514752     -1.4476000
C      -2.5806899     -2.7937077     -1.3797533
C      -3.3335211     -3.8784015     -1.8583810
C      -2.8444560     -5.1804046     -1.7784820
C      -1.5932467     -5.4229665     -1.2083853
C      -0.8422249     -4.3536020     -0.7159236
C      -1.3303750     -3.0521757     -0.7928085
H      -2.9412150      4.6626341     -0.1000685
H      -2.1259999      4.5324628     -1.6761263
H      -3.8583705      6.3688108     -1.6820878
H      -5.1153446      5.1774449     -1.2562421
H      -4.2917776      5.0786524     -2.8357639
H      -1.0393742     -0.1836784     -0.8047496
H      -4.2615549      0.8051552     -1.6553601
H      -4.2139239     -1.4118423     -1.7858397
H      -4.3161868     -3.6925788     -2.2988678
H      -3.4429090     -6.0098775     -2.1592423
H      -1.2092175     -6.4423107     -1.1401178
H       0.1315611     -4.5319735     -0.2543316
H      -0.7426347     -2.2317761     -0.3823315
H       1.9024063      4.7970075      2.7433712
C       1.7173782      3.7730001      2.4342111
H       3.3892305      2.4674926      3.1336181
H      -0.5671831      5.1159987      2.0277728
C       2.4435788      2.6377980      2.6280768
H      -1.4019438      3.7135737      1.2604186
C      -0.4821685      4.3059723      1.2958046
N       0.5941222      3.4151884      1.7194422
H       6.6663323      1.2542082     -0.8970887
H       6.3321490      2.2594290     -3.1605756
C       5.6669846      1.2789769     -1.3351355
C       5.4790022      1.8485158     -2.6189234
N       1.7447771      1.6132890      2.0190476
H      -0.2577929      4.7102283      0.3016592
C       0.6288600      2.1106366      1.4725579
C       4.6023872      0.7566314     -0.6372096
C       4.2218518      1.8780282     -3.1773762
H       2.0780277      0.1615472      4.1871104
H       4.7563352      0.3184335      0.3512013
H       4.0646036      2.3114882     -4.1677752
C       2.1156811      0.2279268      2.0170063
C       2.2408065     -0.4139966      3.2747733
C       3.2894936      0.7792947     -1.1881163
C       3.1020078      1.3469999     -2.4837204
H      -0.1394264      1.5470685      0.9383877
C       2.1618342      0.2538593     -0.4939021
C       1.7926681      1.3596047     -3.0465210
C       2.3001019     -0.4312109      0.8207425
C       2.5358001     -1.7504559      3.3225210
H       1.6550048      1.7877645     -4.0418939
H       2.6270589     -2.2607068      4.2828436
C       0.7182242      0.8568419     -2.3628673
C       0.8971776      0.2975353     -1.0628684
C       2.5878678     -1.8353271      0.8646103
C       2.7053788     -2.4959789      2.1227151
O      -0.1113237     -0.1830196     -0.3456185
H      -0.2871746      0.8801539     -2.7838815
C       2.7487590     -2.5960855     -0.3272850
C       2.9832061     -3.8900709      2.1517091
H       2.6503983     -2.0955423     -1.2914721
H       3.0703757     -4.3864011      3.1202118
C       3.0172192     -3.9430517     -0.2671214
C       3.1363970     -4.5982867      0.9841632
H       3.1344369     -4.5144339     -1.1891254
H       3.3490212     -5.6678420      1.0163654
H      -1.4255795     -1.8407643      3.0896867
C      -3.4322653     -1.5742336      1.4269112
C      -4.4914188     -0.8442012      0.7813784
C      -2.8506856      0.6541706      1.4751933
C      -1.2293512     -0.9357176      2.5011460
C      -4.1166070      0.5091810      0.6839614
N      -2.4202247     -0.6119390      1.7541951
O      -2.2827635      1.6880457      1.7983231
O      -3.3077609     -2.7498405      1.7252326
H      -5.4332684     -1.3032116      0.4945609
H      -0.9872495     -0.0973996      3.1704591
H      -4.8018760      1.3596180      0.6577411
H      -0.3749254     -1.1168110      1.8315678
          85

O      -1.4456334      2.3351988     -0.8922172
C      -2.6172465      2.1021878     -1.0995870
O      -3.5326304      3.0730837     -1.2810571
C      -3.0964438      4.4248497     -1.1632301
C      -4.1553661      5.3158250     -1.7709327
C      -3.2736500      0.7894098     -1.1349407
N      -2.5138823     -0.3346182     -1.2794268
C      -3.1683933     -1.4520022     -1.4527498
C      -2.5811621     -2.7950102     -1.3853916
C      -3.3332669     -3.8820596     -1.8608315
C      -2.8432704     -5.1836745     -1.7767009
C      -1.5919390     -5.4245552     -1.2061228
C      -0.8423432     -4.3534305     -0.7155925
C      -1.3313530     -3.0526692     -0.7960586
H      -2.9499396      4.6561531     -0.0968399
H      -2.1265090      4.5365721     -1.6685111
H      -3.8568375      6.3683576     -1.6756923
H      -5.1180988      5.1783700     -1.2598643
H      -4.2881852      5.0842925     -2.8366218
H      -1.0396737     -0.1877744     -0.8076935
H      -4.2538298      0.8085120     -1.6257897
H      -4.2137579     -1.4077522     -1.7877325
H      -4.3158664     -3.6984677     -2.3024246
H      -3.4413756     -6.0144523     -2.1552136
H      -1.2072444     -6.4434551     -1.1353625
H       0.1311014     -4.5298626     -0.2524590
H      -0.7444182     -2.2313714     -0.3861008
H       1.9009827      4.7971104      2.7408078
C       1.7156895      3.7728489      2.4326523
H       3.3881688      2.4679543      3.1317155
H      -0.5737867      5.1118545      2.0296158
C       2.4420838      2.6378227      2.6268409
H      -1.4021491      3.7116050      1.2519039
C      -0.4839563      4.3054165      1.2943353
N       0.5918758      3.4145314      1.7190152
H       6.6650501      1.2539274     -0.8957752
H       6.3318141      2.2594333     -3.1592876
C       5.6658803      1.2787707     -1.3342278
C       5.4784694      1.8484429     -2.6180126
N       1.7427596      1.6128154      2.0192197
H      -0.2555488      4.7145103      0.3031846
C       0.6264214      2.1098120      1.4732285
C       4.6010054      0.7564394     -0.6366992
C       4.2215426      1.8779621     -3.1769433
H       2.0775232      0.1613244      4.1869843
H       4.7546060      0.3182166      0.3517549
H       4.0646524      2.3115025     -4.1673622
C       2.1141184      0.2275984      2.0168790
C       2.2401293     -0.4142410      3.2746241
C       3.2883604      0.7792026     -1.1880430
C       3.1015185      1.3468824     -2.4837718
H      -0.1419368      1.5464633      0.9390205
C       2.1604290      0.2538647     -0.4943178
C       1.7925431      1.3598686     -3.0473008
C       2.2983171     -0.4313986      0.8204163
C       2.5357653     -1.7505545      3.3223050
H       1.6555047      1.7883253     -4.0426276
H       2.6277489     -2.2607436      4.2825909
C       0.7177376      0.8576708     -2.3639800
C       0.8961986      0.2979381     -1.0640232
C       2.5869055     -1.8354097      0.8643125
C       2.7050973     -2.4960171      2.1224146
O      -0.1121882     -0.1827188     -0.3472199
H      -0.2875469      0.8821734     -2.7852083
C       2.7480814     -2.5961381     -0.3275746
C       2.9832919     -3.8900474      2.1513812
H       2.6494750     -2.0956012     -1.2917413
H       3.0708277     -4.3863172      3.1198829
C       3.0169161     -3.9430405     -0.2674396
C       3.1363212     -4.5982763      0.9838229
H       3.1342191     -4.5143750     -1.1894617
H       3.3491077     -5.6678004      1.0159982
H      -1.4265315     -1.8373508      3.0911841
C      -3.4279004     -1.5751859      1.4266483
C      -4.4952515     -0.8407326      0.7949438
C      -2.8519971      0.6547057      1.4805052
C      -1.2296607     -0.9331191      2.5015849
C      -4.1277971      0.5080809      0.7258555
N      -2.4166319     -0.6133049      1.7489355
O      -2.2846871      1.6923270      1.7902101
O      -3.3096185     -2.7514658      1.7206562
H      -5.4352105     -1.3004434      0.5032824
H      -0.9943472     -0.0933028      3.1715896
H      -4.8044090      1.3615452      0.6712370
H      -0.3707676     -1.1121481      1.8374770
          85

O      -1.4510112      2.3309990     -0.8987876
C      -2.6217173      2.0993665     -1.1130048
O      -3.5381652      3.0717897     -1.2890289
C      -3.0995902      4.4220568     -1.1654963
C      -4.1558878      5.3171534     -1.7717094
C      -3.2720425      0.7876337     -1.1578208
N      -2.5155376     -0.3367619     -1.2950702
C      -3.1700629     -1.4558821     -1.4627124
C      -2.5817792     -2.7977891     -1.3885569
C      -3.3334954     -3.8858882     -1.8619693
C      -2.8430299     -5.1870494     -1.7765262
C      -1.5915342     -5.4266989     -1.2058169
C      -0.8428303     -4.3547374     -0.7158190
C      -1.3322016     -3.0541574     -0.7977929
H      -2.9534893      4.6495460     -0.0981889
H      -2.1287553      4.5338088     -1.6690923
H      -3.8548240      6.3687926     -1.6746176
H      -5.1191620      5.1812870     -1.2612136
H      -4.2889210      5.0876602     -2.8378209
H      -1.0394417     -0.1873236     -0.8133117
H      -4.2560254      0.8041639     -1.6423538
H      -4.2142502     -1.4138521     -1.8018031
H      -4.3157699     -3.7029040     -2.3045458
H      -3.4405777     -6.0184333     -2.1546244
H      -1.2060266     -6.4452564     -1.1345394
H       0.1306271     -4.5303421     -0.2523927
H      -0.7454056     -2.2322208     -0.3889465
H       1.8999488      4.7970144      2.7397466
C       1.7145802      3.7726601      2.4319357
H       3.3872714      2.4679305      3.1309191
H      -0.5792574      5.1086012      2.0293854
C       2.4410446      2.6376370      2.6262398
H      -1.4021180      3.7084857      1.2451495
C      -0.4853024      4.3041148      1.2925086
N       0.5906740      3.4140802      1.7186271
H       6.6643062      1.2537472     -0.8953146
H       6.3315208      2.2594040     -3.1588436
C       5.6652169      1.2786576     -1.3339488
C       5.4780784      1.8484027     -2.6177263
N       1.7416021      1.6124412      2.0191214
H      -0.2540458      4.7161410      0.3032350
C       0.6249532      2.1092802      1.4734787
C       4.6001892      0.7563166     -0.6365580
C       4.2212239      1.8779137     -3.1767879
H       2.0771438      0.1611753      4.1869286
H       4.7537821      0.3180771      0.3518942
H       4.0643675      2.3114304     -4.1672225
C       2.1131966      0.2272882      2.0168063
C       2.2396970     -0.4144086      3.2745725
C       3.2875334      0.7790314     -1.1879947
C       3.1011476      1.3467319     -2.4837797
H      -0.1443541      1.5461434      0.9399845
C       2.1591978      0.2536281     -0.4944916
C       1.7924417      1.3595442     -3.0478394
C       2.2972877     -0.4316506      0.8202677
C       2.5357148     -1.7506422      3.3221801
H       1.6557498      1.7878986     -4.0432516
H       2.6279889     -2.2608054      4.2824523
C       0.7174613      0.8573945     -2.3649200
C       0.8952110      0.2978387     -1.0648460
C       2.5865572     -1.8355165      0.8641561
C       2.7050376     -2.4960690      2.1222703
O      -0.1146233     -0.1825003     -0.3493760
H      -0.2876973      0.8819248     -2.7863961
C       2.7478618     -2.5961887     -0.3277425
C       2.9833074     -3.8900824      2.1512253
H       2.6491502     -2.0956747     -1.2919088
H       3.0709463     -4.3863523      3.1197193
C       3.0167616     -3.9430692     -0.2676059
C       3.1362139     -4.5983063      0.9836505
H       3.1340474     -4.5144044     -1.1896287
H       3.3489719     -5.6678377      1.0157984
H      -1.4387056     -1.8329528      3.0863973
C      -3.4328514     -1.5775436      1.4152161
C      -4.4993544     -0.8445984      0.7776746
C      -2.8632591      0.6532223      1.4682395
C      -1.2422633     -0.9295464      2.4954368
C      -4.1376446      0.5030802      0.7210006
N      -2.4268224     -0.6139316      1.7389753
O      -2.2995788      1.6922592      1.7781713
O      -3.3174207     -2.7521608      1.7135200
H      -5.4374482     -1.3059891      0.4825932
H      -1.0107377     -0.0874994      3.1639826
H      -4.8122747      1.3559836      0.6499669
H      -0.3811789     -1.1085964      1.8342948
          85

O      -1.4580008      2.3253191     -0.9043661
C      -2.6284192      2.0963548     -1.1257730
O      -3.5424415      3.0715547     -1.2934803
C      -3.1009450      4.4206475     -1.1676568
C      -4.1565120      5.3175122     -1.7726520
C      -3.2792263      0.7852797     -1.1898344
N      -2.5191575     -0.3375344     -1.3052660
C      -3.1710131     -1.4588163     -1.4689251
C      -2.5822851     -2.7994811     -1.3896128
C      -3.3336405     -3.8879915     -1.8627120
C      -2.8431200     -5.1889814     -1.7769912
C      -1.5917194     -5.4282174     -1.2059806
C      -0.8433292     -4.3557831     -0.7161689
C      -1.3327017     -3.0552184     -0.7987056
H      -2.9544840      4.6467395     -0.1001261
H      -2.1301129      4.5312545     -1.6715326
H      -3.8546201      6.3688860     -1.6752544
H      -5.1196394      5.1819638     -1.2617929
H      -4.2904888      5.0885690     -2.8387646
H      -1.0395076     -0.1847696     -0.8149807
H      -4.2622495      0.7988726     -1.6740963
H      -4.2134919     -1.4195599     -1.8132771
H      -4.3158377     -3.7052560     -2.3055494
H      -3.4404937     -6.0205164     -2.1550487
H      -1.2059074     -6.4466286     -1.1344743
H       0.1302611     -4.5311074     -0.2528606
H      -0.7457091     -2.2327464     -0.3911727
H       1.8993396      4.7969453      2.7393017
C       1.7139936      3.7725349      2.4316535
H       3.3867004      2.4677935      3.1306914
H      -0.5819858      5.1070606      2.0288371
C       2.4404519      2.6374935      2.6260366
H      -1.4021951      3.7068506      1.2413175
C      -0.4859229      4.3033052      1.2914562
N       0.5901143      3.4137670      1.7183871
H       6.6639916      1.2536554     -0.8951664
H       6.3313659      2.2594065     -3.1587444
C       5.6649378      1.2786198     -1.3338751
C       5.4779177      1.8483983     -2.6176474
N       1.7410390      1.6122471      2.0189774
H      -0.2534100      4.7163399      0.3028731
C       0.6243177      2.1089608      1.4732891
C       4.5998382      0.7562713     -0.6365368
C       4.2210894      1.8778878     -3.1767552
H       2.0770311      0.1610623      4.1868792
H       4.7534555      0.3180242      0.3519100
H       4.0642971      2.3114071     -4.1671926
C       2.1127794      0.2271441      2.0167361
C       2.2394880     -0.4145127      3.2745097
C       3.2871630      0.7789586     -1.1880124
C       3.1009644      1.3466606     -2.4838057
H      -0.1452787      1.5458086      0.9398573
C       2.1585943      0.2535189     -0.4945753
C       1.7923418      1.3592642     -3.0481016
C       2.2968966     -0.4317459      0.8201844
C       2.5356677     -1.7507178      3.3221155
H       1.6557691      1.7874264     -4.0436095
H       2.6280327     -2.2608663      4.2823845
C       0.7172847      0.8568627     -2.3654794
C       0.8947303      0.2976359     -1.0652889
C       2.5864241     -1.8355552      0.8640808
C       2.7050108     -2.4961080      2.1221989
O      -0.1159893     -0.1826267     -0.3503677
H      -0.2877888      0.8808728     -2.7871779
C       2.7477577     -2.5961997     -0.3278217
C       2.9832950     -3.8901146      2.1511436
H       2.6490038     -2.0957191     -1.2919992
H       3.0709483     -4.3863873      3.1196307
C       3.0166737     -3.9430741     -0.2676894
C       3.1361473     -4.5983233      0.9835553
H       3.1339179     -4.5144002     -1.1897198
H       3.3488749     -5.6678584      1.0156836
H      -1.4461096     -1.8314225      3.0831092
C      -3.4386867     -1.5782528      1.4078937
C      -4.5057983     -0.8491990      0.7615923
C      -2.8744167      0.6527683      1.4570045
C      -1.2493360     -0.9287022      2.4911760
C      -4.1495081      0.4990466      0.6976958
N      -2.4350072     -0.6141860      1.7331514
O      -2.3089949      1.6892919      1.7728475
O      -3.3218277     -2.7524938      1.7079293
H      -5.4418742     -1.3155162      0.4676220
H      -1.0185166     -0.0863263      3.1593094
H      -4.8264218      1.3503614      0.6258464
H      -0.3877855     -1.1076040      1.8304464
          85

O      -1.4647099      2.3195486     -0.9108654
C      -2.6342701      2.0933845     -1.1390308
O      -3.5487754      3.0704016     -1.3005948
C      -3.1039013      4.4178781     -1.1699748
C      -4.1568171      5.3187679     -1.7735730
C      -3.2789219      0.7830040     -1.2112819
N      -2.5209773     -0.3393901     -1.3217847
C      -3.1726947     -1.4625160     -1.4783155
C      -2.5827476     -2.8020540     -1.3918621
C      -3.3338917     -3.8912234     -1.8633777
C      -2.8429853     -5.1918017     -1.7771251
C      -1.5914548     -5.4301351     -1.2060487
C      -0.8437943     -4.3572304     -0.7162519
C      -1.3334214     -3.0567405     -0.7996278
H      -2.9573100      4.6406231     -0.1017155
H      -2.1323595      4.5275660     -1.6727146
H      -3.8522128      6.3692682     -1.6751853
H      -5.1202474      5.1852488     -1.2627278
H      -4.2915366      5.0910999     -2.8398711
H      -1.0391624     -0.1840599     -0.8206997
H      -4.2667443      0.7943671     -1.6908475
H      -4.2139604     -1.4262093     -1.8268170
H      -4.3157238     -3.7087237     -2.3071324
H      -3.4397888     -6.0237107     -2.1552829
H      -1.2049181     -6.4482765     -1.1345666
H       0.1298094     -4.5320972     -0.2528009
H      -0.7464910     -2.2338326     -0.3929175
H       1.8982280      4.7968836      2.7385613
C       1.7128605      3.7723829      2.4312181
H       3.3858219      2.4679301      3.1302726
H      -0.5867901      5.1044321      2.0278541
C       2.4394593      2.6373933      2.6257368
H      -1.4022713      3.7039089      1.2355136
C      -0.4871687      4.3019428      1.2895640
N       0.5889494      3.4133036      1.7182160
H       6.6634081      1.2537248     -0.8948317
H       6.3310243      2.2595538     -3.1584447
C       5.6644098      1.2786733     -1.3336708
C       5.4775400      1.8485140     -2.6174273
N       1.7401345      1.6119536      2.0189579
H      -0.2521337      4.7169858      0.3023993
C       0.6231004      2.1084503      1.4735853
C       4.5992179      0.7562395     -0.6364266
C       4.2207385      1.8780111     -3.1765724
H       2.0768450      0.1609478      4.1868637
H       4.7528956      0.3180056      0.3520213
H       4.0639478      2.3115514     -4.1669991
C       2.1121442      0.2269210      2.0166994
C       2.2391931     -0.4146272      3.2744810
C       3.2864823      0.7788092     -1.1879485
C       3.1006081      1.3466061     -2.4837454
H      -0.1473155      1.5454049      0.9408053
C       2.1575170      0.2532698     -0.4947043
C       1.7922158      1.3588834     -3.0485146
C       2.2961119     -0.4319385      0.8200803
C       2.5355786     -1.7507922      3.3219763
H       1.6559156      1.7869115     -4.0441116
H       2.6281220     -2.2609415      4.2822276
C       0.7170410      0.8563530     -2.3663184
C       0.8938400      0.2974229     -1.0659834
C       2.5861914     -1.8356160      0.8639155
C       2.7048890     -2.4961581      2.1220335
O      -0.1184062     -0.1825103     -0.3524312
H      -0.2879076      0.8801771     -2.7882772
C       2.7474951     -2.5961626     -0.3280530
C       2.9832183     -3.8901586      2.1509006
H       2.6486387     -2.0956630     -1.2922074
H       3.0710224     -4.3864810      3.1193500
C       3.0162802     -3.9430506     -0.2679723
C       3.1359187     -4.5983086      0.9832546
H       3.1333408     -4.5143868     -1.1900190
H       3.3486509     -5.6678458      1.0153138
H      -1.4581759     -1.8283726      3.0768029
C      -3.4442169     -1.5804924      1.3964136
C      -4.5085545     -0.8530819      0.7426062
C      -2.8844723      0.6512184      1.4446903
C      -1.2623855     -0.9255369      2.4847710
C      -4.1569882      0.4944219      0.6889825
N      -2.4457641     -0.6146385      1.7240887
O      -2.3240207      1.6894497      1.7615832
O      -3.3300196     -2.7528847      1.7017983
H      -5.4430379     -1.3203966      0.4450159
H      -1.0350166     -0.0817431      3.1524248
H      -4.8319943      1.3452949      0.6045187
H      -0.3990202     -1.1034303      1.8262188
          85

O      -1.4720637      2.3133912     -0.9157108
C      -2.6415135      2.0904007     -1.1509715
O      -3.5525332      3.0706701     -1.3034620
C      -3.1045078      4.4170692     -1.1719581
C      -4.1574084      5.3187853     -1.7745259
C      -3.2887959      0.7807480     -1.2449586
N      -2.5250258     -0.3396812     -1.3298481
C      -3.1733703     -1.4649665     -1.4828304
C      -2.5832141     -2.8032627     -1.3918370
C      -3.3340193     -3.8925113     -1.8638483
C      -2.8431948     -5.1930151     -1.7778659
C      -1.5918642     -5.4313216     -1.2063835
C      -0.8442197     -4.3581824     -0.7166565
C      -1.3337175     -3.0576233     -0.8001234
H      -2.9571903      4.6393936     -0.1037510
H      -2.1332213      4.5250966     -1.6756702
H      -3.8527651      6.3692613     -1.6765924
H      -5.1203909      5.1850704     -1.2629063
H      -4.2933329      5.0909040     -2.8406083
H      -1.0394214     -0.1808716     -0.8208447
H      -4.2725900      0.7890106     -1.7269167
H      -4.2127790     -1.4316118     -1.8367075
H      -4.3158532     -3.7100467     -2.3076232
H      -3.4399344     -6.0248934     -2.1562413
H      -1.2052770     -6.4494208     -1.1348595
H       0.1295915     -4.5330058     -0.2535492
H      -0.7464209     -2.2343551     -0.3946327
H       1.8979503      4.7968285      2.7382801
C       1.7125108      3.7722923      2.4310896
H       3.3853889      2.4678481      3.1302953
H      -0.5883214      5.1037786      2.0270196
C       2.4390648      2.6372857      2.6257060
H      -1.4024304      3.7029705      1.2331498
C      -0.4874915      4.3013706      1.2888269
N       0.5886084      3.4130463      1.7181377
H       6.6632917      1.2537690     -0.8948233
H       6.3309862      2.2595046     -3.1584324
C       5.6643160      1.2786913     -1.3336829
C       5.4774771      1.8485322     -2.6174294
N       1.7398590      1.6118338      2.0188182
H      -0.2518227      4.7164957      0.3018568
C       0.6228317      2.1082205      1.4732781
C       4.5991181      0.7562245     -0.6364422
C       4.2206755      1.8780180     -3.1765797
H       2.0767293      0.1608709      4.1867978
H       4.7528466      0.3180956      0.3520570
H       4.0639113      2.3116111     -4.1669928
C       2.1119699      0.2268541      2.0166435
C       2.2390593     -0.4146648      3.2744325
C       3.2863543      0.7787558     -1.1879988
C       3.1004939      1.3466027     -2.4837586
H      -0.1475664      1.5451270      0.9401391
C       2.1572094      0.2531940     -0.4947681
C       1.7920897      1.3586263     -3.0486405
C       2.2960046     -0.4319758      0.8200388
C       2.5355337     -1.7508210      3.3219381
H       1.6558383      1.7864259     -4.0443445
H       2.6280691     -2.2609559      4.2821929
C       0.7168901      0.8556944     -2.3667039
C       0.8935442      0.2971952     -1.0662143
C       2.5862033     -1.8356349      0.8638622
C       2.7048139     -2.4962047      2.1219924
O      -0.1193327     -0.1827756     -0.3529301
H      -0.2880300      0.8788255     -2.7888364
C       2.7474407     -2.5961433     -0.3281337
C       2.9831837     -3.8901958      2.1508424
H       2.6485640     -2.0956882     -1.2922836
H       3.0710309     -4.3865377      3.1192983
C       3.0161617     -3.9430390     -0.2680435
C       3.1358733     -4.5983084      0.9831700
H       3.1331095     -4.5143564     -1.1901312
H       3.3486560     -5.6678591      1.0152069
H      -1.4635196     -1.8280824      3.0738530
C      -3.4499725     -1.5807173      1.3909047
C      -4.5151987     -0.8576771      0.7277710
C      -2.8952784      0.6510467      1.4343330
C      -1.2673205     -0.9256887      2.4812623
C      -4.1680575      0.4910490      0.6612924
N      -2.4530727     -0.6146500      1.7200826
O      -2.3312585      1.6855854      1.7588718
O      -3.3329826     -2.7529883      1.6971923
H      -5.4477494     -1.3304939      0.4325541
H      -1.0393649     -0.0820980      3.1485690
H      -4.8469624      1.3397093      0.5799706
H      -0.4043843     -1.1036963      1.8220730
          85

O      -1.4796863      2.3068300     -0.9208919
C      -2.6488846      2.0874666     -1.1636273
O      -3.5566292      3.0710608     -1.3067596
C      -3.1051672      4.4162497     -1.1740937
C      -4.1580516      5.3188905     -1.7754256
C      -3.2971044      0.7783910     -1.2776583
N      -2.5295046     -0.3400089     -1.3393559
C      -3.1744672     -1.4676901     -1.4878235
C      -2.5835473     -2.8045871     -1.3922355
C      -3.3341466     -3.8940045     -1.8642977
C      -2.8434738     -5.1943979     -1.7784453
C      -1.5922023     -5.4324987     -1.2067259
C      -0.8446586     -4.3590932     -0.7170729
C      -1.3339899     -3.0584710     -0.8008057
H      -2.9567838      4.6379573     -0.1059762
H      -2.1342948      4.5226771     -1.6788864
H      -3.8533615      6.3693950     -1.6776829
H      -5.1205856      5.1848853     -1.2630321
H      -4.2951310      5.0910046     -2.8413735
H      -1.0391658     -0.1775609     -0.8215597
H      -4.2828271      0.7841762     -1.7588045
H      -4.2120833     -1.4377212     -1.8472908
H      -4.3158995     -3.7114937     -2.3082122
H      -3.4401577     -6.0262355     -2.1569889
H      -1.2054801     -6.4505478     -1.1351365
H       0.1292296     -4.5337276     -0.2540887
H      -0.7465103     -2.2349827     -0.3961051
H       1.8976689      4.7966910      2.7382908
C       1.7123036      3.7721715      2.4309891
H       3.3850787      2.4674627      3.1301986
H      -0.5900534      5.1026349      2.0267933
C       2.4387802      2.6370863      2.6255726
H      -1.4022594      3.7017459      1.2306424
C      -0.4877546      4.3008016      1.2882323
N       0.5885518      3.4129267      1.7177925
H       6.6631744      1.2535387     -0.8948456
H       6.3309425      2.2594367     -3.1585127
C       5.6642038      1.2785847     -1.3337332
C       5.4774406      1.8484319     -2.6174974
N       1.7395586      1.6117110      2.0185646
H      -0.2514618      4.7167824      0.3017513
C       0.6225650      2.1081049      1.4728894
C       4.5989298      0.7561723     -0.6365125
C       4.2206451      1.8778956     -3.1766523
H       2.0767191      0.1607955      4.1867531
H       4.7526784      0.3179249      0.3519206
H       4.0638576      2.3113925     -4.1670921
C       2.1117059      0.2267296      2.0165515
C       2.2389139     -0.4147650      3.2743515
C       3.2861300      0.7787051     -1.1880396
C       3.1004215      1.3464833     -2.4838276
H      -0.1481948      1.5450733      0.9399494
C       2.1568588      0.2531017     -0.4947750
C       1.7920452      1.3583453     -3.0487780
C       2.2958761     -0.4320619      0.8199832
C       2.5354936     -1.7508958      3.3219104
H       1.6557745      1.7859552     -4.0445548
H       2.6280625     -2.2610057      4.2821775
C       0.7168114      0.8552222     -2.3670032
C       0.8932885      0.2969831     -1.0664661
C       2.5861633     -1.8356770      0.8638624
C       2.7049159     -2.4962115      2.1219899
O      -0.1203136     -0.1828728     -0.3534983
H      -0.2880298      0.8778557     -2.7892775
C       2.7474986     -2.5962074     -0.3280815
C       2.9832199     -3.8902008      2.1508783
H       2.6486070     -2.0957896     -1.2922713
H       3.0709563     -4.3865155      3.1193319
C       3.0163155     -3.9430818     -0.2679807
C       3.1359166     -4.5983458      0.9832356
H       3.1333382     -4.5144154     -1.1900286
H       3.3485898     -5.6678907      1.0152916
H      -1.4692202     -1.8274454      3.0704521
C      -3.4555748     -1.5812830      1.3845558
C      -4.5214862     -0.8622887      0.7121398
C      -2.9051350      0.6504891      1.4236330
C      -1.2732202     -0.9252953      2.4773441
C      -4.1797608      0.4871644      0.6347555
N      -2.4608632     -0.6148193      1.7155467
O      -2.3391635      1.6819170      1.7554801
O      -3.3363130     -2.7529758      1.6922457
H      -5.4520062     -1.3407878      0.4190549
H      -1.0447235     -0.0811867      3.1436586
H      -4.8607886      1.3343188      0.5561418
H      -0.4108857     -1.1039544      1.8174302
          85

O      -1.4872883      2.3000602     -0.9273537
C      -2.6558345      2.0842786     -1.1771165
O      -3.5621826      3.0705711     -1.3125360
C      -3.1070300      4.4142991     -1.1766753
C      -4.1585937      5.3197186     -1.7762203
C      -3.3012005      0.7763479     -1.3049191
N      -2.5328463     -0.3412105     -1.3536565
C      -3.1763120     -1.4708848     -1.4959485
C      -2.5840499     -2.8064946     -1.3940249
C      -3.3343590     -3.8965523     -1.8648872
C      -2.8435392     -5.1966674     -1.7786234
C      -1.5921870     -5.4340629     -1.2068642
C      -0.8451289     -4.3601550     -0.7174363
C      -1.3345412     -3.0595251     -0.8019148
H      -2.9576936      4.6336648     -0.1082136
H      -2.1360988      4.5194192     -1.6816670
H      -3.8525836      6.3697724     -1.6778162
H      -5.1209783      5.1863671     -1.2633645
H      -4.2967642      5.0927654     -2.8422282
H      -1.0389618     -0.1755534     -0.8252492
H      -4.2845999      0.7792131     -1.7861427
H      -4.2125821     -1.4445410     -1.8595064
H      -4.3159203     -3.7143081     -2.3093302
H      -3.4399243     -6.0287609     -2.1570933
H      -1.2049326     -6.4518960     -1.1351492
H       0.1288582     -4.5344277     -0.2544905
H      -0.7469192     -2.2355936     -0.3983260
H       1.8974969      4.7965073      2.7379321
C       1.7120114      3.7720081      2.4306257
H       3.3846207      2.4670486      3.1298638
H      -0.5936470      5.1002572      2.0270375
C       2.4383374      2.6367896      2.6252336
H      -1.4018222      3.6994858      1.2260998
C      -0.4883609      4.2999633      1.2872444
N       0.5883067      3.4128023      1.7173523
H       6.6628418      1.2532167     -0.8947791
H       6.3308540      2.2591502     -3.1585019
C       5.6639080      1.2783560     -1.3337435
C       5.4773025      1.8482007     -2.6175226
N       1.7390231      1.6114700      2.0182857
H      -0.2505086      4.7182218      0.3020908
C       0.6219980      2.1079558      1.4726696
C       4.5985373      0.7560076     -0.6365424
C       4.2205333      1.8776584     -3.1767130
H       2.0764455      0.1607407      4.1866790
H       4.7523315      0.3177576      0.3518855
H       4.0637484      2.3110817     -4.1671823
C       2.1111898      0.2264994      2.0164498
C       2.2386329     -0.4148516      3.2743029
C       3.2856973      0.7785233     -1.1880617
C       3.1002716      1.3462720     -2.4838912
H      -0.1494673      1.5451199      0.9401570
C       2.1561456      0.2528664     -0.4948512
C       1.7920223      1.3580303     -3.0490858
C       2.2953901     -0.4322992      0.8198958
C       2.5354809     -1.7509261      3.3218910
H       1.6559005      1.7854776     -4.0449474
H       2.6281618     -2.2609821      4.2821745
C       0.7166889      0.8549517     -2.3675173
C       0.8927124      0.2968989     -1.0669199
C       2.5861248     -1.8358044      0.8638371
C       2.7050145     -2.4962463      2.1220057
O      -0.1222025     -0.1826374     -0.3549460
H      -0.2881098      0.8774285     -2.7898641
C       2.7476469     -2.5963437     -0.3280594
C       2.9833293     -3.8902228      2.1509807
H       2.6487495     -2.0960050     -1.2922888
H       3.0709936     -4.3864921      3.1194624
C       3.0165833     -3.9431850     -0.2678683
C       3.1360532     -4.5984138      0.9833756
H       3.1337243     -4.5145410     -1.1898850
H       3.3486656     -5.6679681      1.0154767
H      -1.4792551     -1.8243104      3.0660186
C      -3.4612232     -1.5829870      1.3747515
C      -4.5255781     -0.8667710      0.6941430
C      -2.9161260      0.6491536      1.4113713
C      -1.2836290     -0.9230557      2.4714766
C      -4.1879951      0.4827263      0.6191131
N      -2.4707716     -0.6152647      1.7078273
O      -2.3515897      1.6799625      1.7471468
O      -3.3422877     -2.7534781      1.6861202
H      -5.4542563     -1.3474867      0.3990743
H      -1.0567757     -0.0775169      3.1363667
H      -4.8698227      1.3284798      0.5317848
H      -0.4204839     -1.1019690      1.8126911
          85

O      -1.4941593      2.2943553     -0.9338692
C      -2.6620203      2.0810655     -1.1902862
O      -3.5673425      3.0694441     -1.3189919
C      -3.1092852      4.4118405     -1.1793197
C      -4.1591698      5.3205363     -1.7769720
C      -3.3045393      0.7740855     -1.3324222
N      -2.5358131     -0.3424390     -1.3670359
C      -3.1776029     -1.4739998     -1.5046232
C      -2.5846362     -2.8084931     -1.3965155
C      -3.3346223     -3.8994484     -1.8658355
C      -2.8435178     -5.1992524     -1.7786502
C      -1.5920568     -5.4357469     -1.2067899
C      -0.8456825     -4.3611086     -0.7177715
C      -1.3353276     -3.0605822     -0.8034485
H      -2.9596021      4.6284401     -0.1103446
H      -2.1380834      4.5162283     -1.6839691
H      -3.8511920      6.3698981     -1.6773008
H      -5.1216183      5.1882321     -1.2639549
H      -4.2982966      5.0952260     -2.8432071
H      -1.0389814     -0.1736784     -0.8289382
H      -4.2886816      0.7741779     -1.8116083
H      -4.2124405     -1.4505875     -1.8724421
H      -4.3160495     -3.7177969     -2.3108211
H      -3.4395870     -6.0317678     -2.1567156
H      -1.2042020     -6.4533179     -1.1346643
H       0.1283433     -4.5347084     -0.2546292
H      -0.7477340     -2.2360843     -0.4009741
H       1.8972006      4.7963681      2.7372230
C       1.7115561      3.7718420      2.4300915
H       3.3840982      2.4667404      3.1293335
H      -0.5978785      5.0975390      2.0272477
C       2.4377730      2.6365274      2.6247824
H      -1.4014294      3.6970766      1.2206762
C      -0.4891183      4.2990256      1.2860434
N       0.5877983      3.4125589      1.7169384
H       6.6623900      1.2528892     -0.8945852
H       6.3307402      2.2588436     -3.1583815
C       5.6635117      1.2781037     -1.3336709
C       5.4771201      1.8479488     -2.6174689
N       1.7383270      1.6111889      2.0180536
H      -0.2492611      4.7198760      0.3024649
C       0.6212162      2.1076719      1.4725422
C       4.5980213      0.7558069     -0.6365245
C       4.2203903      1.8774177     -3.1767205
H       2.0761392      0.1606855      4.1865883
H       4.7518364      0.3175810      0.3519142
H       4.0636290      2.3107946     -4.1672110
C       2.1105589      0.2262437      2.0163352
C       2.2383049     -0.4149481      3.2742403
C       3.2851525      0.7783008     -1.1880810
C       3.1000706      1.3460519     -2.4839509
H      -0.1508233      1.5449643      0.9403530
C       2.1552642      0.2526241     -0.4949927
C       1.7919841      1.3577568     -3.0494844
C       2.2947322     -0.4325491      0.8197682
C       2.5354585     -1.7509560      3.3218622
H       1.6561031      1.7850618     -4.0454351
H       2.6282987     -2.2609500      4.2821624
C       0.7164994      0.8547169     -2.3682150
C       0.8919953      0.2968329     -1.0675389
C       2.5860114     -1.8359383      0.8637876
C       2.7050683     -2.4962867      2.1220040
O      -0.1241925     -0.1823951     -0.3566096
H      -0.2882210      0.8770585     -2.7907282
C       2.7477519     -2.5964819     -0.3280654
C       2.9834514     -3.8902438      2.1510552
H       2.6488324     -2.0962160     -1.2923294
H       3.0711081     -4.3864660      3.1195605
C       3.0168014     -3.9432932     -0.2677916
C       3.1361979     -4.5984759      0.9834810
H       3.1340360     -4.5146769     -1.1897773
H       3.3487998     -5.6680301      1.0156244
H      -1.4892382     -1.8213534      3.0616906
C      -3.4670346     -1.5847476      1.3649161
C      -4.5306108     -0.8712323      0.6767214
C      -2.9273773      0.6480393      1.3994526
C      -1.2937039     -0.9208560      2.4659659
C      -4.1982182      0.4782437      0.6032491
N      -2.4801538     -0.6157937      1.6996188
O      -2.3641144      1.6785040      1.7381817
O      -3.3485917     -2.7542311      1.6793410
H      -5.4571816     -1.3549961      0.3798533
H      -1.0691389     -0.0739282      3.1297605
H      -4.8803333      1.3227902      0.5088701
H      -0.4292482     -1.0997771      1.8088831
          85

O      -1.5007114      2.2891318     -0.9404446
C      -2.6677666      2.0778634     -1.2036243
O      -3.5723455      3.0680918     -1.3258526
C      -3.1117047      4.4091647     -1.1819447
C      -4.1597837      5.3212638     -1.7776972
C      -3.3071766      0.7719677     -1.3602700
N      -2.5387806     -0.3437467     -1.3802544
C      -3.1788165     -1.4771546     -1.5136100
C      -2.5852405     -2.8105316     -1.3993128
C      -3.3348454     -3.9024836     -1.8669845
C      -2.8434383     -5.2019674     -1.7786017
C      -1.5919206     -5.4375022     -1.2065407
C      -0.8462741     -4.3620350     -0.7181030
C      -1.3361332     -3.0616413     -0.8052248
H      -2.9620793      4.6227823     -0.1123531
H      -2.1400839      4.5131525     -1.6858873
H      -3.8497715      6.3698811     -1.6764509
H      -5.1224034      5.1899754     -1.2647313
H      -4.2996579      5.0978705     -2.8442408
H      -1.0390886     -0.1717882     -0.8326368
H      -4.2925779      0.7693407     -1.8361321
H      -4.2121840     -1.4566053     -1.8857008
H      -4.3161095     -3.7215245     -2.3126074
H      -3.4391672     -6.0349713     -2.1561462
H      -1.2034280     -6.4547700     -1.1337982
H       0.1278831     -4.5352180     -0.2549929
H      -0.7485994     -2.2362794     -0.4043686
H       1.8967775      4.7962451      2.7363366
C       1.7109764      3.7716666      2.4294597
H       3.3835216      2.4665087      3.1286912
H      -0.6024635      5.0946012      2.0274661
C       2.4371224      2.6362885      2.6242607
H      -1.4009960      3.6944006      1.2148966
C      -0.4899897      4.2980292      1.2847352
N       0.5871310      3.4122464      1.7165116
H       6.6618591      1.2525420     -0.8942990
H       6.3306098      2.2585292     -3.1581692
C       5.6630501      1.2778365     -1.3335343
C       5.4769061      1.8476880     -2.6173491
N       1.7375291      1.6108821      2.0178353
H      -0.2479332      4.7216664      0.3028812
C       0.6203001      2.1073202      1.4724516
C       4.5974218      0.7555867     -0.6364742
C       4.2202311      1.8771804     -3.1766969
H       2.0758243      0.1606165      4.1864878
H       4.7512438      0.3173829      0.3519770
H       4.0635209      2.3105204     -4.1672074
C       2.1098472      0.2259825      2.0162032
C       2.2379414     -0.4150571      3.2741654
C       3.2845552      0.7780716     -1.1881110
C       3.0998365      1.3458331     -2.4840155
H      -0.1522641      1.5447431      0.9405374
C       2.1543050      0.2523838     -0.4951827
C       1.7919322      1.3575023     -3.0499331
C       2.2939675     -0.4327786      0.8196069
C       2.5354116     -1.7509847      3.3218441
H       1.6563281      1.7846836     -4.0459682
H       2.6284544     -2.2609193      4.2821481
C       0.7162733      0.8544974     -2.3690053
C       0.8912460      0.2967847     -1.0682542
C       2.5858290     -1.8360652      0.8637027
C       2.7050992     -2.4963284      2.1219889
O      -0.1262137     -0.1821734     -0.3583340
H      -0.2883593      0.8767399     -2.7917030
C       2.7478007     -2.5966157     -0.3281080
C       2.9835916     -3.8902804      2.1511245
H       2.6488449     -2.0964325     -1.2924078
H       3.0712476     -4.3864486      3.1196452
C       3.0169879     -3.9434040     -0.2677453
C       3.1363392     -4.5985419      0.9835507
H       3.1342987     -4.5148096     -1.1896986
H       3.3489323     -5.6680880      1.0157393
H      -1.4993506     -1.8184092      3.0574384
C      -3.4728114     -1.5864541      1.3550954
C      -4.5361291     -0.8756277      0.6599594
C      -2.9387713      0.6470320      1.3876228
C      -1.3037868     -0.9186828      2.4604716
C      -4.2092859      0.4736742      0.5884515
N      -2.4894181     -0.6163553      1.6911780
O      -2.3766338      1.6771128      1.7289432
O      -3.3549493     -2.7550026      1.6721769
H      -5.4603931     -1.3628074      0.3613457
H      -1.0816127     -0.0704835      3.1233394
H      -4.8914003      1.3170998      0.4860145
H      -0.4377612     -1.0969559      1.8051754
          85

O      -1.4918630      2.2987229     -0.9408205
C      -2.6577040      2.0785949     -1.2012009
O      -3.5700672      3.0636123     -1.3345349
C      -3.1156053      4.4051734     -1.1819130
C      -4.1602097      5.3219446     -1.7767155
C      -3.2885468      0.7741684     -1.3454137
N      -2.5338244     -0.3462226     -1.3809050
C      -3.1777488     -1.4776010     -1.5215717
C      -2.5856460     -2.8119410     -1.4069650
C      -3.3348822     -3.9064335     -1.8698574
C      -2.8425031     -5.2054284     -1.7762703
C      -1.5906650     -5.4386670     -1.2039280
C      -0.8464491     -4.3611910     -0.7181585
C      -1.3372121     -3.0615183     -0.8098720
H      -2.9706106      4.6130690     -0.1103032
H      -2.1416017      4.5152484     -1.6799771
H      -3.8467438      6.3690226     -1.6689819
H      -5.1250571      5.1919775     -1.2675469
H      -4.2970784      5.1048980     -2.8450254
H      -1.0397369     -0.1764388     -0.8375376
H      -4.2810143      0.7719883     -1.8051749
H      -4.2124143     -1.4523850     -1.8897479
H      -4.3161484     -3.7279627     -2.3165425
H      -3.4378670     -6.0400856     -2.1508083
H      -1.2013518     -6.4554106     -1.1282019
H       0.1273844     -4.5321108     -0.2534659
H      -0.7505679     -2.2349871     -0.4100212
H       1.8962853      4.7962747      2.7336786
C       1.7100161      3.7715096      2.4277031
H       3.3829086      2.4666138      3.1266100
H      -0.6104049      5.0890175      2.0308010
C       2.4361154      2.6361379      2.6228294
H      -1.4002854      3.6913849      1.2051577
C      -0.4915458      4.2973675      1.2834958
N       0.5855720      3.4118144      1.7158406
H       6.6606224      1.2516453     -0.8931343
H       6.3305328      2.2576981     -3.1571207
C       5.6620039      1.2770726     -1.3328034
C       5.4765447      1.8469593     -2.6166726
N       1.7358455      1.6103867      2.0177555
H      -0.2449011      4.7279415      0.3056342
C       0.6182754      2.1067092      1.4729526
C       4.5960375      0.7549793     -0.6361009
C       4.2200900      1.8766010     -3.1764622
H       2.0752794      0.1606365      4.1862332
H       4.7495086      0.3168048      0.3524194
H       4.0636973      2.3099539     -4.1670191
C       2.1082859      0.2255442      2.0159354
C       2.2372248     -0.4151988      3.2739786
C       3.2833892      0.7776311     -1.1881460
C       3.0994797      1.3454266     -2.4841842
H      -0.1548212      1.5444277      0.9415108
C       2.1527381      0.2521240     -0.4957406
C       1.7919913      1.3578448     -3.0508548
C       2.2920744     -0.4332111      0.8191849
C       2.5353740     -1.7509576      3.3217803
H       1.6571467      1.7854096     -4.0468251
H       2.6290807     -2.2607011      4.2821237
C       0.7158749      0.8557503     -2.3702491
C       0.8900634      0.2973577     -1.0695854
C       2.5850936     -1.8363263      0.8635384
C       2.7050295     -2.4963585      2.1219419
O      -0.1277338     -0.1812944     -0.3606081
H      -0.2886272      0.8795133     -2.7931383
C       2.7477457     -2.5969718     -0.3281356
C       2.9840418     -3.8902183      2.1512823
H       2.6486574     -2.0969172     -1.2924945
H       3.0719515     -4.3861957      3.1198837
C       3.0175097     -3.9436493     -0.2675687
C       3.1368857     -4.5986294      0.9838128
H       3.1352144     -4.5151094     -1.1894405
H       3.3497229     -5.6681261      1.0161369
H      -1.5039502     -1.8133416      3.0582736
C      -3.4699579     -1.5884061      1.3513028
C      -4.5376320     -0.8727072      0.6690186
C      -2.9399397      0.6468342      1.3904434
C      -1.3077319     -0.9148340      2.4597081
C      -4.2140021      0.4728827      0.6280659
N      -2.4877668     -0.6175079      1.6837496
O      -2.3817202      1.6827553      1.7174092
O      -3.3586529     -2.7571697      1.6661366
H      -5.4608105     -1.3573017      0.3631934
H      -1.0930095     -0.0641591      3.1223338
H      -4.8887199      1.3187931      0.4985902
H      -0.4366436     -1.0918767      1.8109446
          85

O      -1.4789896      2.3094935     -0.9356027
C      -2.6433430      2.0810467     -1.1970516
O      -3.5588794      3.0617789     -1.3456685
C      -3.1162254      4.4051760     -1.1804395
C      -4.1630887      5.3191683     -1.7753689
C      -3.2777774      0.7766300     -1.3333031
N      -2.5293874     -0.3490741     -1.3710689
C      -3.1731620     -1.4775809     -1.5281971
C      -2.5838368     -2.8132650     -1.4167306
C      -3.3331987     -3.9096824     -1.8758504
C      -2.8417286     -5.2087155     -1.7735414
C      -1.5909457     -5.4400907     -1.1979152
C      -0.8456362     -4.3603608     -0.7189779
C      -1.3353673     -3.0611791     -0.8191015
H      -2.9811653      4.6061494     -0.1060450
H      -2.1392688      4.5270506     -1.6701886
H      -3.8581637      6.3674817     -1.6552937
H      -5.1309973      5.1774099     -1.2750725
H      -4.2898096      5.1113210     -2.8468524
H      -1.0412484     -0.1808613     -0.8360107
H      -4.2709743      0.7796963     -1.7916990
H      -4.2095090     -1.4467208     -1.8919067
H      -4.3143015     -3.7334715     -2.3238276
H      -3.4376379     -6.0451952     -2.1431818
H      -1.2034627     -6.4569734     -1.1144747
H       0.1273619     -4.5294432     -0.2518673
H      -0.7487696     -2.2333202     -0.4221797
H       1.8948233      4.7962023      2.7283090
C       1.7077558      3.7711395      2.4238276
H       3.3810370      2.4664259      3.1220103
H      -0.6202857      5.0821003      2.0367034
C       2.4336144      2.6357667      2.6193599
H      -1.4007478      3.6901466      1.1932671
C      -0.4943898      4.2977996      1.2827684
N       0.5821785      3.4111173      1.7139250
H       6.6590267      1.2495498     -0.8906001
H       6.3310737      2.2554657     -3.1548866
C       5.6607642      1.2752751     -1.3310582
C       5.4764700      1.8451233     -2.6151094
N       1.7320722      1.6095807      2.0164414
H      -0.2425867      4.7381454      0.3105654
C       0.6140968      2.1057356      1.4723118
C       4.5940837      0.7536065     -0.6352955
C       4.2204900      1.8753725     -3.1759957
H       2.0729003      0.1607609      4.1850624
H       4.7463782      0.3153626      0.3533664
H       4.0652203      2.3088558     -4.1666764
C       2.1050138      0.2249002      2.0147755
C       2.2349846     -0.4153206      3.2729850
C       3.2820698      0.7768856     -1.1885355
C       3.0990367      1.3448633     -2.4846317
H      -0.1590763      1.5434317      0.9412542
C       2.1512123      0.2517273     -0.4968820
C       1.7917293      1.3583674     -3.0518058
C       2.2894724     -0.4338524      0.8181166
C       2.5346514     -1.7507037      3.3212345
H       1.6575216      1.7864261     -4.0476570
H       2.6295254     -2.2599769      4.2817146
C       0.7150225      0.8568930     -2.3715477
C       0.8888486      0.2977727     -1.0709862
C       2.5835035     -1.8367908      0.8629365
C       2.7044895     -2.4963061      2.1215572
O      -0.1274580     -0.1812354     -0.3609524
H      -0.2892806      0.8817994     -2.7948886
C       2.7470205     -2.5977464     -0.3284207
C       2.9851818     -3.8898270      2.1514121
H       2.6472572     -2.0981312     -1.2929482
H       3.0738608     -4.3852804      3.1202136
C       3.0185443     -3.9440752     -0.2673741
C       3.1387906     -4.5985071      0.9842089
H       3.1369717     -4.5156963     -1.1890542
H       3.3529877     -5.6677220      1.0168989
H      -1.4968815     -1.8156766      3.0524781
C      -3.4693614     -1.5877535      1.3545876
C      -4.5476827     -0.8682200      0.6924321
C      -2.9394933      0.6479366      1.3975352
C      -1.3033328     -0.9137873      2.4581517
C      -4.2220695      0.4761005      0.6488197
N      -2.4844776     -0.6167331      1.6837910
O      -2.3782809      1.6850914      1.7153397
O      -3.3528799     -2.7591201      1.6572076
H      -5.4691882     -1.3537271      0.3829468
H      -1.0911739     -0.0650223      3.1240509
H      -4.8913041      1.3229271      0.5196798
H      -0.4319434     -1.0857784      1.8087596
          85

O      -1.4721424      2.3131679     -0.9276412
C      -2.6343434      2.0811988     -1.2017226
O      -3.5519558      3.0627316     -1.3510728
C      -3.1145400      4.4057329     -1.1788841
C      -4.1636101      5.3173392     -1.7742998
C      -3.2619072      0.7817431     -1.3590892
N      -2.5286433     -0.3488483     -1.3710311
C      -3.1710964     -1.4785404     -1.5317653
C      -2.5817802     -2.8130167     -1.4191482
C      -3.3316076     -3.9101356     -1.8769235
C      -2.8417050     -5.2094007     -1.7718761
C      -1.5914141     -5.4415786     -1.1954750
C      -0.8443847     -4.3613316     -0.7203205
C      -1.3322496     -3.0618202     -0.8232961
H      -2.9837860      4.6046315     -0.1035908
H      -2.1363184      4.5337833     -1.6646077
H      -3.8658226      6.3668692     -1.6481425
H      -5.1328353      5.1672722     -1.2791154
H      -4.2846421      5.1135645     -2.8470928
H      -1.0398404     -0.1810295     -0.8350508
H      -4.2681028      0.7820223     -1.7893731
H      -4.2075428     -1.4464708     -1.8954007
H      -4.3124976     -3.7338988     -2.3253705
H      -3.4388201     -6.0457505     -2.1399095
H      -1.2055566     -6.4587829     -1.1091730
H       0.1287511     -4.5299231     -0.2532793
H      -0.7435728     -2.2343677     -0.4287106
H       1.8938357      4.7960698      2.7258041
C       1.7063217      3.7710058      2.4216168
H       3.3795927      2.4659414      3.1190859
H      -0.6239134      5.0799171      2.0397077
C       2.4319288      2.6354927      2.6169711
H      -1.4018019      3.6910151      1.1887952
C      -0.4962847      4.2987996      1.2829665
N       0.5801999      3.4112101      1.7125072
H       6.6588947      1.2480977     -0.8897424
H       6.3316081      2.2539757     -3.1541076
C       5.6607331      1.2740044     -1.3304152
C       5.4767760      1.8438570     -2.6145195
N       1.7296794      1.6093401      2.0147984
H      -0.2432901      4.7428516      0.3129534
C       0.6116145      2.1058038      1.4709065
C       4.5937676      0.7525700     -0.6350020
C       4.2209450      1.8745253     -3.1757767
H       2.0698750      0.1608655      4.1840590
H       4.7455293      0.3142328      0.3536959
H       4.0661574      2.3081482     -4.1664713
C       2.1028341      0.2246698      2.0137659
C       2.2326213     -0.4152719      3.2721260
C       3.2820216      0.7762298     -1.1887349
C       3.0991158      1.3443597     -2.4847489
H      -0.1616908      1.5444486      0.9390917
C       2.1511200      0.2512117     -0.4974207
C       1.7917081      1.3584468     -3.0518114
C       2.2886050     -0.4343429      0.8174968
C       2.5333896     -1.7504319      3.3207146
H       1.6575555      1.7869047     -4.0474960
H       2.6284889     -2.2593707      4.2813573
C       0.7147733      0.8573213     -2.3715566
C       0.8889099      0.2976908     -1.0713252
C       2.5829139     -1.8371442      0.8625591
C       2.7041143     -2.4962428      2.1213086
O      -0.1266437     -0.1819843     -0.3606440
H      -0.2896301      0.8832414     -2.7946756
C       2.7467375     -2.5982613     -0.3286483
C       2.9861288     -3.8894602      2.1514858
H       2.6464207     -2.0989434     -1.2932763
H       3.0753270     -4.3846080      3.1204057
C       3.0193442     -3.9443380     -0.2672867
C       3.1404692     -4.5982692      0.9844776
H       3.1380555     -4.5161383     -1.1888225
H       3.3558116     -5.6672521      1.0174325
H      -1.4887973     -1.8148360      3.0527995
C      -3.4636592     -1.5864899      1.3593047
C      -4.5547935     -0.8629847      0.7093388
C      -2.9431380      0.6493681      1.4056516
C      -1.2975476     -0.9147098      2.4550202
C      -4.2391458      0.4753108      0.6834150
N      -2.4828544     -0.6175795      1.6862606
O      -2.3774115      1.6844382      1.7197344
O      -3.3481326     -2.7593546      1.6511587
H      -5.4737737     -1.3524412      0.3982034
H      -1.0821110     -0.0648560      3.1183674
H      -4.8988506      1.3256124      0.5199088
H      -0.4297733     -1.0888721      1.8018078
          85

O      -1.4650153      2.3173522     -0.9150601
C      -2.6249659      2.0830814     -1.2008904
O      -3.5432523      3.0652714     -1.3546094
C      -3.1103348      4.4079913     -1.1754194
C      -4.1600403      5.3179844     -1.7726979
C      -3.2497427      0.7871893     -1.3724889
N      -2.5267394     -0.3477139     -1.3684682
C      -3.1679653     -1.4778824     -1.5323940
C      -2.5793005     -2.8120577     -1.4190311
C      -3.3308755     -3.9093056     -1.8745233
C      -2.8425567     -5.2090344     -1.7688299
C      -1.5917071     -5.4426000     -1.1942040
C      -0.8422807     -4.3624887     -0.7224409
C      -1.3282527     -3.0624179     -0.8263571
H      -2.9850344      4.6044576     -0.0989479
H      -2.1301918      4.5412625     -1.6560933
H      -3.8677944      6.3684069     -1.6409360
H      -5.1311831      5.1614234     -1.2831699
H      -4.2748173      5.1177420     -2.8468549
H      -1.0385067     -0.1814168     -0.8336311
H      -4.2623679      0.7879503     -1.7865390
H      -4.2054196     -1.4448794     -1.8936432
H      -4.3123092     -3.7325298     -2.3215584
H      -3.4416143     -6.0448528     -2.1349758
H      -1.2072391     -6.4602151     -1.1070577
H       0.1316842     -4.5315583     -0.2572820
H      -0.7369042     -2.2356175     -0.4344251
H       1.8936289      4.7959878      2.7249553
C       1.7057307      3.7710781      2.4205003
H       3.3789029      2.4653212      3.1168146
H      -0.6229585      5.0810545      2.0421106
C       2.4310706      2.6353428      2.6151862
H      -1.4033066      3.6940567      1.1908430
C      -0.4972910      4.3006305      1.2845874
N       0.5791480      3.4118691      1.7118684
H       6.6598329      1.2465150     -0.8902010
H       6.3325934      2.2526405     -3.1544326
C       5.6616347      1.2727310     -1.3307704
C       5.4776736      1.8427505     -2.6148092
N       1.7282010      1.6095262      2.0131365
H      -0.2455556      4.7450878      0.3146634
C       0.6100587      2.1065355      1.4696618
C       4.5945726      0.7515261     -0.6354011
C       4.2218117      1.8739968     -3.1760050
H       2.0663903      0.1612988      4.1829818
H       4.7461236      0.3129827      0.3532364
H       4.0671840      2.3078957     -4.1666035
C       2.1014451      0.2248266      2.0126991
C       2.2302198     -0.4149126      3.2712811
C       3.2828911      0.7757191     -1.1891825
C       3.0998005      1.3442129     -2.4849872
H      -0.1633040      1.5462920      0.9368675
C       2.1520436      0.2508623     -0.4980174
C       1.7921231      1.3593498     -3.0515084
C       2.2887747     -0.4345188      0.8168990
C       2.5316653     -1.7499243      3.3204190
H       1.6578151      1.7885766     -4.0468398
H       2.6262611     -2.2585598      4.2812733
C       0.7150858      0.8585469     -2.3710951
C       0.8897981      0.2977755     -1.0714858
C       2.5830676     -1.8372697      0.8623952
C       2.7038120     -2.4959910      2.1213540
O      -0.1248560     -0.1829854     -0.3604028
H      -0.2895377      0.8856164     -2.7937321
C       2.7473727     -2.5986276     -0.3285964
C       2.9868328     -3.8890012      2.1519750
H       2.6469739     -2.0995901     -1.2933639
H       3.0760498     -4.3838655      3.1210389
C       3.0206339     -3.9445479     -0.2668089
C       3.1420681     -4.5979908      0.9851869
H       3.1397301     -4.5165806     -1.1881510
H       3.3582203     -5.6668006      1.0184959
H      -1.4738630     -1.8199549      3.0479663
C      -3.4572788     -1.5858647      1.3675450
C      -4.5591066     -0.8586069      0.7315848
C      -2.9427855      0.6501535      1.4195001
C      -1.2875694     -0.9166125      2.4534763
C      -4.2492087      0.4766981      0.7166821
N      -2.4778824     -0.6182851      1.6923456
O      -2.3744595      1.6839075      1.7311536
O      -3.3409133     -2.7604112      1.6490813
H      -5.4760532     -1.3503307      0.4177056
H      -1.0708224     -0.0695051      3.1198780
H      -4.9024616      1.3277405      0.5370527
H      -0.4230906     -1.0856686      1.7948138
          85

O      -1.4656306      2.3173332     -0.9197210
C      -2.6236172      2.0813280     -1.2155078
O      -3.5448897      3.0639841     -1.3609235
C      -3.1127893      4.4056827     -1.1765498
C      -4.1620516      5.3173964     -1.7723028
C      -3.2423130      0.7891577     -1.4108867
N      -2.5287309     -0.3491541     -1.3808715
C      -3.1686498     -1.4806647     -1.5424910
C      -2.5805058     -2.8136974     -1.4211757
C      -3.3308530     -3.9124358     -1.8758552
C      -2.8414993     -5.2116365     -1.7693693
C      -1.5907936     -5.4442253     -1.1939485
C      -0.8432673     -4.3630928     -0.7213721
C      -1.3299654     -3.0633696     -0.8265329
H      -2.9883695      4.5997494     -0.0993359
H      -2.1320753      4.5414361     -1.6557318
H      -3.8690026      6.3676179     -1.6400935
H      -5.1331151      5.1612884     -1.2823990
H      -4.2777006      5.1178670     -2.8465842
H      -1.0380077     -0.1804568     -0.8363052
H      -4.2596542      0.7882822     -1.8103890
H      -4.2055918     -1.4491264     -1.9056297
H      -4.3117403     -3.7367341     -2.3245785
H      -3.4395211     -6.0479669     -2.1361407
H      -1.2051373     -6.4614091     -1.1067861
H       0.1305876     -4.5313716     -0.2555774
H      -0.7392137     -2.2358824     -0.4352142
H       1.8928553      4.7958147      2.7247518
C       1.7049904      3.7708737      2.4203627
H       3.3777655      2.4650770      3.1176079
H      -0.6275148      5.0779702      2.0419884
C       2.4301632      2.6350881      2.6155299
H      -1.4021180      3.6922900      1.1818715
C      -0.4972496      4.3000924      1.2821952
N       0.5787786      3.4116265      1.7111631
H       6.6590862      1.2470719     -0.8896013
H       6.3320031      2.2530186     -3.1539521
C       5.6609585      1.2730637     -1.3303432
C       5.4770998      1.8429613     -2.6144287
N       1.7275167      1.6092224      2.0132605
H      -0.2417208      4.7481899      0.3146072
C       0.6096298      2.1063218      1.4691133
C       4.5938691      0.7516955     -0.6350585
C       4.2213046      1.8738503     -3.1757935
H       2.0669032      0.1609967      4.1831976
H       4.7454632      0.3132997      0.3536431
H       4.0666699      2.3076230     -4.1664436
C       2.1009076      0.2245854      2.0128516
C       2.2303483     -0.4151659      3.2713991
C       3.2822315      0.7755876     -1.1889729
C       3.0993345      1.3438710     -2.4848765
H      -0.1637975      1.5466290      0.9354976
C       2.1511281      0.2507177     -0.4979115
C       1.7917863      1.3587918     -3.0517106
C       2.2880147     -0.4346904      0.8169804
C       2.5320169     -1.7501433      3.3204144
H       1.6576703      1.7878552     -4.0471316
H       2.6270908     -2.2587747      4.2812215
C       0.7146004      0.8583140     -2.3714032
C       0.8890796      0.2977874     -1.0717261
C       2.5827115     -1.8373834      0.8623276
C       2.7038632     -2.4961839      2.1212529
O      -0.1264554     -0.1826244     -0.3611116
H      -0.2900564      0.8857517     -2.7939374
C       2.7468946     -2.5986108     -0.3287702
C       2.9868432     -3.8892408      2.1517039
H       2.6462694     -2.0995148     -1.2934785
H       3.0762385     -4.3842069      3.1206906
C       3.0201417     -3.9445472     -0.2671391
C       3.1417212     -4.5981195      0.9847732
H       3.1390052     -4.5165036     -1.1885487
H       3.3577318     -5.6669550      1.0179343
H      -1.4810265     -1.8087366      3.0554098
C      -3.4591142     -1.5876870      1.3639245
C      -4.5690173     -0.8603905      0.7333301
C      -2.9542609      0.6492431      1.4163415
C      -1.2922771     -0.9145124      2.4478191
C      -4.2692785      0.4730265      0.7311151
N      -2.4832662     -0.6193216      1.6860506
O      -2.3847684      1.6831357      1.7232050
O      -3.3435972     -2.7619650      1.6423212
H      -5.4813647     -1.3573537      0.4134180
H      -1.0697523     -0.0590003      3.1014393
H      -4.9166896      1.3225811      0.5328060
H      -0.4304248     -1.0962578      1.7891768
          85

O      -1.4625825      2.3183211     -0.9147988
C      -2.6174158      2.0805868     -1.2250218
O      -3.5387116      3.0646632     -1.3742147
C      -3.1109979      4.4049099     -1.1754929
C      -4.1592837      5.3188933     -1.7698574
C      -3.2319449      0.7921849     -1.4384198
N      -2.5280222     -0.3499111     -1.3888591
C      -3.1657787     -1.4822988     -1.5534946
C      -2.5789402     -2.8147867     -1.4258914
C      -3.3300867     -3.9151502     -1.8762642
C      -2.8414959     -5.2143194     -1.7661307
C      -1.5905715     -5.4464276     -1.1909649
C      -0.8422951     -4.3640287     -0.7223481
C      -1.3278698     -3.0642687     -0.8316099
H      -2.9936971      4.5908873     -0.0959909
H      -2.1276704      4.5478567     -1.6472889
H      -3.8699699      6.3688998     -1.6283823
H      -5.1325201      5.1564158     -1.2864193
H      -4.2688300      5.1269639     -2.8461167
H      -1.0378492     -0.1805022     -0.8387336
H      -4.2545416      0.7913917     -1.8259061
H      -4.2027776     -1.4510569     -1.9172845
H      -4.3111119     -3.7404719     -2.3251119
H      -3.4404731     -6.0512088     -2.1301367
H      -1.2054287     -6.4635654     -1.1011523
H       0.1319451     -4.5312500     -0.2569082
H      -0.7353399     -2.2362070     -0.4442303
H       1.8919693      4.7954612      2.7241345
C       1.7037056      3.7706657      2.4194998
H       3.3755381      2.4638697      3.1170813
H      -0.6312227      5.0759392      2.0433041
C       2.4281851      2.6344797      2.6147324
H      -1.4013265      3.6932816      1.1744974
C      -0.4977268      4.3014279      1.2809611
N       0.5776238      3.4121138      1.7097998
H       6.6588885      1.2460006     -0.8893129
H       6.3323787      2.2521177     -3.1536714
C       5.6608442      1.2721911     -1.3302328
C       5.4773091      1.8422004     -2.6143043
N       1.7252427      1.6090314      2.0120753
H      -0.2394856      4.7535182      0.3162445
C       0.6078006      2.1068451      1.4674129
C       4.5935326      0.7509266     -0.6351833
C       4.2215950      1.8734286     -3.1758442
H       2.0641752      0.1611613      4.1823383
H       4.7448909      0.3124034      0.3535013
H       4.0671897      2.3073695     -4.1664557
C       2.0987946      0.2244101      2.0119590
C       2.2282128     -0.4150702      3.2706829
C       3.2819966      0.7751362     -1.1893182
C       3.0993937      1.3437229     -2.4851192
H      -0.1655569      1.5483537      0.9322165
C       2.1505937      0.2503742     -0.4986122
C       1.7918434      1.3595894     -3.0519727
C       2.2869692     -0.4349878      0.8163254
C       2.5308040     -1.7498449      3.3200841
H       1.6579673      1.7892704     -4.0471556
H       2.6259717     -2.2581773      4.2810420
C       0.7143652      0.8595009     -2.3718912
C       0.8887153      0.2979998     -1.0726576
C       2.5823476     -1.8375303      0.8620511
C       2.7035244     -2.4960457      2.1211371
O      -0.1270662     -0.1829260     -0.3626532
H      -0.2903770      0.8879287     -2.7942305
C       2.7470953     -2.5988975     -0.3288776
C       2.9872652     -3.8889510      2.1519014
H       2.6463576     -2.1000201     -1.2936900
H       3.0767557     -4.3837014      3.1209900
C       3.0208902     -3.9447102     -0.2669439
C       3.1426339     -4.5979720      0.9851153
H       3.1400640     -4.5168062     -1.1882247
H       3.3591352     -5.6667013      1.0185039
H      -1.4758084     -1.8017725      3.0583859
C      -3.4587118     -1.5885856      1.3668725
C      -4.5799864     -0.8597141      0.7501918
C      -2.9626548      0.6491105      1.4237019
C      -1.2890832     -0.9141990      2.4403691
C      -4.2868135      0.4708900      0.7570055
N      -2.4856185     -0.6200108      1.6863449
O      -2.3926078      1.6831039      1.7262683
O      -3.3402500     -2.7642255      1.6348238
H      -5.4900343     -1.3594297      0.4281697
H      -1.0582826     -0.0535099      3.0841266
H      -4.9291643      1.3205147      0.5410739
H      -0.4335789     -1.1046055      1.7762258
          85

O      -1.4599367      2.3182321     -0.9064110
C      -2.6111931      2.0798113     -1.2322234
O      -3.5304630      3.0660258     -1.3905686
C      -3.1064239      4.4041619     -1.1749199
C      -4.1527260      5.3223468     -1.7664876
C      -3.2227672      0.7948682     -1.4597359
N      -2.5267731     -0.3505649     -1.3943302
C      -3.1620677     -1.4836202     -1.5631213
C      -2.5761085     -2.8156383     -1.4311828
C      -3.3294244     -3.9173794     -1.8753563
C      -2.8425990     -5.2167746     -1.7604610
C      -1.5909066     -5.4486369     -1.1868248
C      -0.8399224     -4.3650513     -0.7252945
C      -1.3234669     -3.0650255     -0.8396447
H      -2.9967210      4.5796875     -0.0927997
H      -2.1201187      4.5544981     -1.6383845
H      -3.8669852      6.3715482     -1.6120145
H      -5.1287455      5.1522862     -1.2912055
H      -4.2549248      5.1415539     -2.8454458
H      -1.0376355     -0.1806405     -0.8407234
H      -4.2486546      0.7944155     -1.8389027
H      -4.1993388     -1.4526336     -1.9267632
H      -4.3111960     -3.7434363     -2.3228841
H      -3.4438034     -6.0542181     -2.1195566
H      -1.2072693     -6.4659753     -1.0930614
H       0.1352625     -4.5313639     -0.2614649
H      -0.7280885     -2.2365294     -0.4578287
H       1.8906770      4.7949056      2.7238367
C       1.7019449      3.7703821      2.4185768
H       3.3725315      2.4621242      3.1163285
H      -0.6363082      5.0734121      2.0471983
C       2.4255358      2.6336468      2.6136169
H      -1.4011772      3.6940902      1.1661936
C      -0.4986459      4.3033646      1.2802007
N       0.5760046      3.4128837      1.7081859
H       6.6589802      1.2437230     -0.8893794
H       6.3332684      2.2505468     -3.1535345
C       5.6610045      1.2705382     -1.3304182
C       5.4779103      1.8409743     -2.6143621
N       1.7222250      1.6088942      2.0101888
H      -0.2367067      4.7618004      0.3187873
C       0.6053486      2.1077055      1.4650545
C       4.5933337      0.7496074     -0.6356806
C       4.2222622      1.8731388     -3.1760183
H       2.0594912      0.1615234      4.1808241
H       4.7442965      0.3106889      0.3528906
H       4.0682281      2.3075310     -4.1664897
C       2.0958005      0.2242585      2.0104405
C       2.2246593     -0.4148311      3.2694422
C       3.2819184      0.7746343     -1.1900372
C       3.0996613      1.3439129     -2.4855801
H      -0.1679123      1.5506632      0.9280423
C       2.1502173      0.2499975     -0.4998224
C       1.7920546      1.3611881     -3.0523317
C       2.2856800     -0.4353142      0.8151883
C       2.5284304     -1.7493192      3.3194875
H       1.6584298      1.7918595     -4.0471195
H       2.6233811     -2.2572575      4.2806777
C       0.7142232      0.8613457     -2.3726019
C       0.8884958      0.2983558     -1.0740230
C       2.5818535     -1.8376582      0.8615419
C       2.7027247     -2.4957134      2.1208980
O      -0.1271410     -0.1834946     -0.3645115
H      -0.2905953      0.8909338     -2.7947854
C       2.7477488     -2.5992861     -0.3290556
C       2.9876735     -3.8883516      2.1522651
H       2.6470842     -2.1007682     -1.2940688
H       3.0770780     -4.3827161      3.1215609
C       3.0224823     -3.9448846     -0.2665447
C       3.1442101     -4.5976218      0.9857914
H       3.1424541     -4.5172137     -1.1875778
H       3.3615821     -5.6661611      1.0196297
H      -1.4690638     -1.7930951      3.0646372
C      -3.4566058     -1.5894638      1.3707621
C      -4.5882952     -0.8593408      0.7674809
C      -2.9690489      0.6491168      1.4332286
C      -1.2837742     -0.9144947      2.4337909
C      -4.3010203      0.4690016      0.7819890
N      -2.4863018     -0.6203186      1.6888416
O      -2.3994296      1.6833984      1.7332768
O      -3.3345524     -2.7663262      1.6285186
H      -5.4958425     -1.3621447      0.4424296
H      -1.0416275     -0.0476894      3.0645356
H      -4.9397783      1.3182723      0.5532445
H      -0.4364190     -1.1175496      1.7634384
          85

O      -1.4586094      2.3166005     -0.8970285
C      -2.6062688      2.0786850     -1.2385857
O      -3.5214523      3.0678410     -1.4096075
C      -3.0994783      4.4031144     -1.1752828
C      -4.1419555      5.3279931     -1.7632075
C      -3.2162156      0.7966049     -1.4759836
N      -2.5258427     -0.3511680     -1.3987364
C      -3.1585641     -1.4849633     -1.5712530
C      -2.5729174     -2.8165753     -1.4360877
C      -3.3294068     -3.9196844     -1.8720907
C      -2.8446082     -5.2193777     -1.7521188
C      -1.5912883     -5.4508889     -1.1818957
C      -0.8362943     -4.3660045     -0.7299687
C      -1.3176282     -3.0656482     -0.8496054
H      -2.9975662      4.5661918     -0.0903624
H      -2.1099279      4.5598366     -1.6298219
H      -3.8581355      6.3754402     -1.5940153
H      -5.1212018      5.1514787     -1.2970248
H      -4.2364715      5.1602740     -2.8449700
H      -1.0376345     -0.1804947     -0.8425848
H      -4.2440433      0.7965768     -1.8503737
H      -4.1959909     -1.4546356     -1.9350404
H      -4.3126943     -3.7465031     -2.3166092
H      -3.4489475     -6.0574757     -2.1044450
H      -1.2094036     -6.4684787     -1.0837789
H       0.1406545     -4.5313850     -0.2694730
H      -0.7184819     -2.2365195     -0.4751660
H       1.8892290      4.7940427      2.7245207
C       1.6998913      3.7699453      2.4182108
H       3.3691071      2.4596922      3.1154517
H      -0.6318834      5.0781854      2.0424655
C       2.4224762      2.6324802      2.6124957
H      -1.4031720      3.7005835      1.1726364
C      -0.5001429      4.3056907      1.2805594
N       0.5741026      3.4139910      1.7069184
H       6.6594245      1.2401512     -0.8901737
H       6.3345187      2.2485278     -3.1537516
C       5.6614600      1.2680853     -1.3311700
C       5.4788070      1.8394262     -2.6147814
N       1.7186891      1.6088247      2.0077755
H      -0.2429503      4.7580151      0.3179515
C       0.6024540      2.1089909      1.4623952
C       4.5933520      0.7476571     -0.6367523
C       4.2231580      1.8731498     -3.1763682
H       2.0526747      0.1618931      4.1786915
H       4.7438914      0.3079851      0.3515510
H       4.0695183      2.3083627     -4.1665414
C       2.0920204      0.2240991      2.0083471
C       2.2195650     -0.4145891      3.2676952
C       3.2819973      0.7740785     -1.1911710
C       3.1000718      1.3445105     -2.4862530
H      -0.1707976      1.5536307      0.9234548
C       2.1499693      0.2496268     -0.5015007
C       1.7923393      1.3636238     -3.0527299
C       2.2842539     -0.4356336      0.8135872
C       2.5245563     -1.7487568      3.3185904
H       1.6589301      1.7956280     -4.0469698
H       2.6187358     -2.2563016      4.2800652
C       0.7141335      0.8638589     -2.3734600
C       0.8883296      0.2989467     -1.0757126
C       2.5813324     -1.8377524      0.8607485
C       2.7012960     -2.4953018      2.1204619
O      -0.1270263     -0.1840481     -0.3666806
H      -0.2907529      0.8947125     -2.7954995
C       2.7492182     -2.5996442     -0.3294008
C       2.9878164     -3.8875926      2.1526446
H       2.6490557     -2.1015362     -1.2946898
H       3.0766875     -4.3815146      3.1222158
C       3.0252678     -3.9449501     -0.2661073
C       3.1464585     -4.5970885      0.9865969
H       3.1467529     -4.5175010     -1.1868038
H       3.3650276     -5.6653640      1.0210475
H      -1.4628285     -1.7822147      3.0751327
C      -3.4534239     -1.5909404      1.3744817
C      -4.5938613     -0.8607029      0.7824504
C      -2.9742778      0.6487296      1.4429471
C      -1.2779305     -0.9148374      2.4281340
C      -4.3121017      0.4664358      0.8036308
N      -2.4860397     -0.6207343      1.6918864
O      -2.4061405      1.6836196      1.7415654
O      -3.3273307     -2.7687662      1.6233052
H      -5.4998278     -1.3657728      0.4564635
H      -1.0225536     -0.0399456      3.0428100
H      -4.9496122      1.3146235      0.5675990
H      -0.4394449     -1.1342324      1.7516081
          85

O      -1.4582193      2.3156559     -0.8935348
C      -2.6046691      2.0781687     -1.2404518
O      -3.5180966      3.0685489     -1.4161632
C      -3.0963819      4.4027147     -1.1753276
C      -4.1365256      5.3303685     -1.7630173
C      -3.2142114      0.7969996     -1.4806050
N      -2.5254334     -0.3514175     -1.3999257
C      -3.1572985     -1.4854944     -1.5733568
C      -2.5716736     -2.8169659     -1.4373601
C      -3.3298331     -3.9205756     -1.8695094
C      -2.8457861     -5.2203982     -1.7479303
C      -1.5913564     -5.4517513     -1.1800769
C      -0.8343679     -4.3663709     -0.7325316
C      -1.3148861     -3.0658695     -0.8538527
H      -2.9980931      4.5616359     -0.0893632
H      -2.1051759      4.5610426     -1.6258375
H      -3.8529384      6.3770290     -1.5883812
H      -5.1174497      5.1521108     -1.3009297
H      -4.2274482      5.1673092     -2.8458712
H      -1.0374867     -0.1802780     -0.8431010
H      -4.2426923      0.7970465     -1.8535409
H      -4.1948782     -1.4554746     -1.9368887
H      -4.3140842     -3.7476634     -2.3120169
H      -3.4516758     -6.0587598     -2.0970696
H      -1.2101102     -6.4694466     -1.0805521
H       0.1436324     -4.5313860     -0.2741084
H      -0.7139268     -2.2364996     -0.4827654
H       1.8892098      4.7934179      2.7258783
C       1.6995820      3.7697645      2.4188234
H       3.3682631      2.4584258      3.1148711
H      -0.6369658      5.0742097      2.0491683
C       2.4217942      2.6319145      2.6121772
H      -1.4018101      3.7009932      1.1674521
C      -0.5006384      4.3071373      1.2828228
N       0.5736368      3.4146776      1.7073498
H       6.6598286      1.2384006     -0.8908815
H       6.3351251      2.2476601     -3.1540944
C       5.6618306      1.2669136     -1.3317666
C       5.4792857      1.8387597     -2.6151732
N       1.7176314      1.6089182      2.0067501
H      -0.2406728      4.7664657      0.3244672
C       0.6015335      2.1098481      1.4617278
C       4.5935636      0.7467193     -0.6374315
C       4.2235931      1.8732543     -3.1766283
H       2.0496175      0.1620474      4.1777109
H       4.7439737      0.3066421      0.3507125
H       4.0700670      2.3088970     -4.1666309
C       2.0906357      0.2240910      2.0073950
C       2.2173184     -0.4144852      3.2668906
C       3.2821893      0.7738617     -1.1917634
C       3.1003296      1.3448585     -2.4866051
H      -0.1718480      1.5553014      0.9220944
C       2.1500572      0.2495371     -0.5022461
C       1.7925069      1.3647779     -3.0528770
C       2.2838644     -0.4357168      0.8128564
C       2.5226183     -1.7485603      3.3181530
H       1.6591298      1.7973550     -4.0468735
H       2.6162196     -2.2559881      4.2797465
C       0.7141794      0.8650370     -2.3737446
C       0.8883961      0.2993484     -1.0763380
C       2.5812178     -1.8377619      0.8603622
C       2.7005524     -2.4951375      2.1202253
O      -0.1268042     -0.1840401     -0.3673889
H      -0.2907513      0.8964220     -2.7956754
C       2.7501484     -2.5997331     -0.3295895
C       2.9877101     -3.8872835      2.1527639
H       2.6503868     -2.1017669     -1.2949989
H       3.0761643     -4.3810473      3.1224547
C       3.0267716     -3.9449121     -0.2659541
C       3.1474957     -4.5968360      0.9869084
H       3.1491053     -4.5175236     -1.1865030
H       3.3665871     -5.6649970      1.0216270
H      -1.4598242     -1.7787020      3.0786604
C      -3.4515995     -1.5914302      1.3761613
C      -4.5948587     -0.8613155      0.7877164
C      -2.9752915      0.6486186      1.4464929
C      -1.2752321     -0.9148814      2.4266233
C      -4.3149063      0.4654691      0.8108603
N      -2.4852443     -0.6207814      1.6933685
O      -2.4077631      1.6837913      1.7446434
O      -3.3240375     -2.7695412      1.6221362
H      -5.5003685     -1.3671324      0.4616432
H      -1.0155893     -0.0375545      3.0361957
H      -4.9522651      1.3133019      0.5727544
H      -0.4397468     -1.1394409      1.7480153
