          85

O      -1.6797261      2.4455332     -0.8850586
C      -2.8565496      2.1811353     -0.8273411
O      -3.8108587      3.0920349     -0.6419154
C      -3.4022441      4.4111494     -0.2755160
C      -4.6393560      5.2724290     -0.1923125
C      -3.4670703      0.8065152     -0.8788938
N      -2.5590715     -0.2041055     -1.2875506
C      -3.1537162     -1.3272209     -1.5407157
C      -2.5014043     -2.6421537     -1.6141110
C      -3.1948298     -3.6960854     -2.2274717
C      -2.6430986     -4.9737957     -2.2833158
C      -1.3929198     -5.2155411     -1.7111713
C      -0.7069558     -4.1775090     -1.0770930
C      -1.2560456     -2.8991627     -1.0201582
H      -2.8894221      4.3420740      0.6956686
H      -2.6877949      4.7895020     -1.0215189
H      -5.1364308      5.3297672     -1.1701596
H      -4.3659284      6.2884166      0.1216177
H      -5.3467422      4.8588408      0.5390129
H      -1.0979437     -0.0148043     -0.7763769
H      -4.3917901      0.8483515     -1.4734129
H      -4.2126447     -1.3223244     -1.8350222
H      -4.1778630     -3.5060835     -2.6649813
H      -3.1903515     -5.7836081     -2.7684204
H      -0.9588449     -6.2162826     -1.7478246
H       0.2603225     -4.3655108     -0.6079921
H      -0.7298056     -2.1004308     -0.4957963
H       2.5236432      5.0397930      2.0340569
C       2.1755090      4.0192716      1.9077937
H       3.7185646      2.5976468      2.6733720
H      -0.5472227      5.1473371      1.6784790
C       2.7577201      2.8309716      2.2244043
H      -0.6928077      4.1809776      0.1639100
C      -0.0039492      4.7042241      0.8350360
N       0.9591517      3.7270466      1.3286303
H       6.6539339      0.9578842     -1.2636304
H       6.2661106      1.8763833     -3.5555621
C       5.6359219      1.0363206     -1.6491930
C       5.4175471      1.5565524     -2.9492120
N       1.8775227      1.8417643      1.8314937
H       0.5356837      5.4841576      0.2870524
C       0.7924986      2.4078902      1.2913371
C       4.5777880      0.6288397     -0.8697854
C       4.1363104      1.6535438     -3.4408801
H       2.1077241      0.5115329      4.0953728
H       4.7556962      0.2275783      0.1304020
H       3.9546003      2.0506575     -4.4422712
C       2.1323867      0.4330000      1.9272090
C       2.2394426     -0.1291906      3.2225980
C       3.2407339      0.7194349     -1.3519971
C       3.0222953      1.2386527     -2.6633548
H      -0.0931668      1.8779341      0.9216254
C       2.1204432      0.3027693     -0.5765514
C       1.6883384      1.3208996     -3.1576190
C       2.2759477     -0.3077382      0.7728115
C       2.4866214     -1.4701462      3.3540506
H       1.5260018      1.7172777     -4.1624526
H       2.5645699     -1.9223012      4.3441683
C       0.6211906      0.9196289     -2.3987073
C       0.8320720      0.4005513     -1.0861445
C       2.5284959     -1.7119849      0.9050907
C       2.6357295     -2.2929757      2.2033325
O      -0.1725716      0.0164679     -0.3089199
H      -0.4033798      0.9934535     -2.7647184
C       2.6805580     -2.5479688     -0.2364126
C       2.8900801     -3.6870386      2.3204454
H       2.5900870     -2.1069544     -1.2301908
H       2.9661222     -4.1233741      3.3182907
C       2.9361284     -3.8909216     -0.0903097
C       3.0397705     -4.4682988      1.2002282
H       3.0533034     -4.5201940     -0.9739871
H       3.2381338     -5.5363494      1.3002440
H      -1.2270906     -2.2822133      2.6309187
C      -3.3945656     -1.7588894      1.3460400
C      -4.3980122     -0.9985231      0.7215207
C      -2.7093050      0.4578875      1.4867177
C      -1.1586874     -1.2020688      2.4523997
C      -3.9706698      0.4082845      0.6282018
N      -2.3480443     -0.8171989      1.7374732
O      -2.1088642      1.4684949      1.8354067
O      -3.2565207     -2.9543085      1.5982965
H      -5.3460331     -1.4125746      0.3897928
H      -1.0892835     -0.6683848      3.4124767
H      -4.6819496      1.1938651      0.9198756
H      -0.2623731     -0.9799687      1.8547019
          85

O      -1.6779134      2.4437205     -0.8814915
C      -2.8551795      2.1800087     -0.8272759
O      -3.8094774      3.0917063     -0.6457811
C      -3.4014761      4.4097716     -0.2749960
C      -4.6389281      5.2705487     -0.1917283
C      -3.4664872      0.8059473     -0.8784957
N      -2.5595963     -0.2053562     -1.2873589
C      -3.1546265     -1.3282280     -1.5406046
C      -2.5022876     -2.6430976     -1.6143186
C      -3.1957306     -3.6975864     -2.2267122
C      -2.6433941     -4.9750664     -2.2824745
C      -1.3926526     -5.2160211     -1.7112234
C      -0.7067138     -4.1774492     -1.0780200
C      -1.2564137     -2.8993975     -1.0211527
H      -2.8904829      4.3379291      0.6969722
H      -2.6856881      4.7903356     -1.0186194
H      -5.1339183      5.3308936     -1.1704416
H      -4.3664934      6.2855892      0.1260705
H      -5.3477612      4.8543827      0.5367155
H      -1.0977075     -0.0154894     -0.7767568
H      -4.3925699      0.8474015     -1.4690941
H      -4.2139240     -1.3231799     -1.8335375
H      -4.1791872     -3.5082440     -2.6635555
H      -3.1906249     -5.7853342     -2.7668421
H      -0.9581454     -6.2165767     -1.7478507
H       0.2609694     -4.3648054     -0.6095082
H      -0.7302393     -2.1003066     -0.4973105
H       2.5235867      5.0396883      2.0342748
C       2.1753587      4.0192923      1.9079113
H       3.7182596      2.5973908      2.6731161
H      -0.5465334      5.1484857      1.6790308
C       2.7574690      2.8308804      2.2242965
H      -0.6934382      4.1815906      0.1649172
C      -0.0039696      4.7047807      0.8354378
N       0.9589084      3.7272853      1.3288458
H       6.6538845      0.9575700     -1.2637504
H       6.2661701      1.8760484     -3.5557007
C       5.6358818      1.0361060     -1.6493158
C       5.4175656      1.5563304     -2.9493491
N       1.8771253      1.8418257      1.8313374
H       0.5357690      5.4842224      0.2868465
C       0.7920826      2.4081398      1.2913883
C       4.5777046      0.6287506     -0.8699107
C       4.1363491      1.6534669     -3.4410324
H       2.1072565      0.5116473      4.0951557
H       4.7555523      0.2274764      0.1302814
H       3.9546956      2.0505861     -4.4424309
C       2.1320319      0.4330607      1.9269997
C       2.2390829     -0.1290892      3.2224066
C       3.2406762      0.7194758     -1.3521527
C       3.0222822      1.2387191     -2.6635082
H      -0.0936088      1.8783998      0.9214584
C       2.1203627      0.3028323     -0.5767551
C       1.6883469      1.3211330     -3.1577920
C       2.2757834     -0.3076762      0.7726241
C       2.4864055     -1.4700089      3.3539131
H       1.5260599      1.7176065     -4.1625945
H       2.5643612     -1.9221250      4.3440477
C       0.6211665      0.9198459     -2.3989325
C       0.8320555      0.4005706     -1.0864726
C       2.5284152     -1.7119089      0.9049609
C       2.6356315     -2.2928564      2.2032265
O      -0.1725303      0.0160854     -0.3093712
H      -0.4033842      0.9936776     -2.7650053
C       2.6805390     -2.5479392     -0.2364975
C       2.8900417     -3.6869015      2.3204097
H       2.5900815     -2.1069759     -1.2303009
H       2.9660719     -4.1231866      3.3182776
C       2.9361370     -3.8908829     -0.0903282
C       3.0397693     -4.4682087      1.2002317
H       3.0533473     -4.5201879     -0.9739782
H       3.2381531     -5.5362506      1.3002937
H      -1.2263140     -2.2806342      2.6292600
C      -3.3937507     -1.7576725      1.3445191
C      -4.3991115     -0.9970255      0.7233305
C      -2.7106481      0.4594955      1.4881223
C      -1.1574220     -1.2007078      2.4496078
C      -3.9717669      0.4094637      0.6296836
N      -2.3474087     -0.8157173      1.7357816
O      -2.1118821      1.4702363      1.8392240
O      -3.2542050     -2.9534150      1.5943661
H      -5.3465923     -1.4115528      0.3906826
H      -1.0866156     -0.6660536      3.4090315
H      -4.6828622      1.1957786      0.9195862
H      -0.2616213     -0.9798996      1.8507393
          85

O      -1.6741147      2.4398288     -0.8723252
C      -2.8520401      2.1781723     -0.8274639
O      -3.8061332      3.0916800     -0.6553267
C      -3.3998191      4.4072784     -0.2741147
C      -4.6382084      5.2666588     -0.1906580
C      -3.4662858      0.8049202     -0.8772293
N      -2.5609800     -0.2079993     -1.2859997
C      -3.1564178     -1.3300509     -1.5408741
C      -2.5040790     -2.6449361     -1.6148761
C      -3.1974005     -3.7005770     -2.2253932
C      -2.6437646     -4.9775876     -2.2808373
C      -1.3919880     -5.2168526     -1.7111534
C      -0.7063110     -4.1771578     -1.0795296
C      -1.2573253     -2.8997321     -1.0229547
H      -2.8931825      4.3287758      0.6996259
H      -2.6809288      4.7931515     -1.0120007
H      -5.1286085      5.3335160     -1.1712468
H      -4.3681967      6.2796348      0.1356332
H      -5.3501053      4.8446701      0.5314069
H      -1.0976901     -0.0170192     -0.7766073
H      -4.3899384      0.8508549     -1.4829783
H      -4.2162600     -1.3246055     -1.8319139
H      -4.1816235     -3.5126455     -2.6611231
H      -3.1908150     -5.7888069     -2.7638114
H      -0.9565108     -6.2169932     -1.7476815
H       0.2620957     -4.3631677     -0.6119990
H      -0.7313921     -2.0998544     -0.5001597
H       2.5236085      5.0395893      2.0346843
C       2.1751210      4.0193066      1.9081202
H       3.7177991      2.5968073      2.6726368
H      -0.5444150      5.1514483      1.6803847
C       2.7569890      2.8306786      2.2240585
H      -0.6951315      4.1829615      0.1677103
C      -0.0038979      4.7060422      0.8363850
N       0.9584667      3.7277823      1.3292884
H       6.6536955      0.9569866     -1.2639319
H       6.2661851      1.8753963     -3.5559295
C       5.6357115      1.0356860     -1.6495100
C       5.4175034      1.5558835     -2.9495795
N       1.8763334      1.8419441      1.8310379
H       0.5359889      5.4840868      0.2859537
C       0.7912494      2.4086545      1.2915308
C       4.5774586      0.6285475     -0.8701212
C       4.1363303      1.6532713     -3.4413059
H       2.1064196      0.5118795      4.0947480
H       4.7551859      0.2272524      0.1300812
H       3.9547923      2.0503875     -4.4427251
C       2.1313288      0.4331722      1.9266072
C       2.2384298     -0.1288857      3.2220477
C       3.2404777      0.7195106     -1.3524326
C       3.0221576      1.2388025     -2.6637814
H      -0.0945267      1.8793138      0.9212883
C       2.1201348      0.3029277     -0.5771239
C       1.6882538      1.3215549     -3.1580702
C       2.2754345     -0.3075740      0.7722825
C       2.4860470     -1.4697334      3.3536629
H       1.5260458      1.7181992     -4.1628150
H       2.5640512     -1.9217618      4.3438330
C       0.6210051      0.9202575     -2.3992816
C       0.8319089      0.4005955     -1.0870269
C       2.5282534     -1.7117740      0.9047310
C       2.6354684     -2.2926287      2.2030432
O      -0.1724377      0.0153380     -0.3100502
H      -0.4034921      0.9940392     -2.7655548
C       2.6804738     -2.5479009     -0.2366385
C       2.8899875     -3.6866410      2.3203660
H       2.5900208     -2.1070449     -1.2304925
H       2.9660122     -4.1228233      3.3182786
C       2.9361226     -3.8908271     -0.0903388
C       3.0397547     -4.4680475      1.2002649
H       3.0533785     -4.5202008     -0.9739341
H       3.2381698     -5.5360743      1.3004184
H      -1.2243718     -2.2776622      2.6255260
C      -3.3923890     -1.7553599      1.3415951
C      -4.4015009     -0.9943165      0.7276960
C      -2.7134134      0.4624389      1.4915214
C      -1.1545036     -1.1981903      2.4434785
C      -3.9735659      0.4118254      0.6324393
N      -2.3461044     -0.8128341      1.7325963
O      -2.1182300      1.4736526      1.8472308
O      -3.2492574     -2.9518419      1.5862363
H      -5.3477443     -1.4096848      0.3926290
H      -1.0802092     -0.6615121      3.4014998
H      -4.6839654      1.1995088      0.9174956
H      -0.2600462     -0.9801321      1.8417476
          85

O      -1.6698556      2.4367485     -0.8636058
C      -2.8485718      2.1764314     -0.8274444
O      -3.8024366      3.0919972     -0.6651936
C      -3.3981516      4.4049492     -0.2729098
C      -4.6376963      5.2626682     -0.1896442
C      -3.4651309      0.8043402     -0.8771321
N      -2.5623363     -0.2106699     -1.2848549
C      -3.1583059     -1.3319152     -1.5412480
C      -2.5059703     -2.6467406     -1.6154132
C      -3.1990118     -3.7036221     -2.2241265
C      -2.6439222     -4.9800847     -2.2792972
C      -1.3911442     -5.2175881     -1.7110710
C      -0.7059605     -4.1767477     -1.0808209
C      -1.2584004     -2.9000043     -1.0245614
H      -2.8962764      4.3196589      0.7027708
H      -2.6759415      4.7965178     -1.0045844
H      -5.1234660      5.3354344     -1.1721149
H      -4.3704428      6.2737640      0.1446258
H      -5.3525610      4.8350377      0.5261376
H      -1.0973741     -0.0183225     -0.7768869
H      -4.3901402      0.8500147     -1.4748171
H      -4.2188188     -1.3260180     -1.8298359
H      -4.1839795     -3.5171798     -2.6588175
H      -3.1906477     -5.7922737     -2.7610105
H      -0.9545800     -6.2172590     -1.7475365
H       0.2631017     -4.3613341     -0.6141012
H      -0.7328630     -2.0993542     -0.5026378
H       2.5235812      5.0395060      2.0350365
C       2.1748717      4.0193235      1.9082742
H       3.7173043      2.5963018      2.6722710
H      -0.5420267      5.1545692      1.6817047
C       2.7564992      2.8305066      2.2238589
H      -0.6969272      4.1843252      0.1705629
C      -0.0037782      4.7073052      0.8372435
N       0.9580658      3.7282448      1.3295985
H       6.6534826      0.9564992     -1.2640554
H       6.2661649      1.8748165     -3.5561099
C       5.6355187      1.0353077     -1.6496613
C       5.4174158      1.5554660     -2.9497701
N       1.8755822      1.8420554      1.8307456
H       0.5362531      5.4838296      0.2847965
C       0.7904772      2.4091349      1.2915782
C       4.5772014      0.6283253     -0.8702943
C       4.1362857      1.6530374     -3.4415437
H       2.1057319      0.5120994      4.0943871
H       4.7548365      0.2270225      0.1299191
H       3.9548365      2.0501429     -4.4429814
C       2.1306863      0.4332785      1.9262549
C       2.2378838     -0.1286926      3.2217274
C       3.2402587      0.7194824     -1.3526683
C       3.0220271      1.2388188     -2.6640101
H      -0.0953645      1.8802281      0.9209084
C       2.1198541      0.3029873     -0.5774476
C       1.6881656      1.3219445     -3.1583129
C       2.2750846     -0.3074999      0.7719861
C       2.4857655     -1.4694789      3.3534457
H       1.5260568      1.7187547     -4.1630043
H       2.5638280     -1.9214150      4.3436530
C       0.6208303      0.9207243     -2.3995897
C       0.8317278      0.4006971     -1.0875345
C       2.5281156     -1.7116663      0.9045397
C       2.6353472     -2.2924355      2.2028948
O      -0.1724907      0.0148460     -0.3106765
H      -0.4036081      0.9945728     -2.7660384
C       2.6804068     -2.5478834     -0.2367491
C       2.8899450     -3.6864241      2.3203412
H       2.5899470     -2.1071280     -1.2306490
H       2.9659677     -4.1225166      3.3182926
C       2.9360885     -3.8907972     -0.0903347
C       3.0397232     -4.4679240      1.2003067
H       3.0533691     -4.5202311     -0.9738839
H       3.2381476     -5.5359408      1.3005410
H      -1.2220469     -2.2747288      2.6215735
C      -3.3910242     -1.7533396      1.3390472
C      -4.4044790     -0.9915275      0.7326994
C      -2.7164470      0.4652623      1.4943913
C      -1.1513103     -1.1957544      2.4368585
C      -3.9760892      0.4139246      0.6349858
N      -2.3450095     -0.8101925      1.7294804
O      -2.1249263      1.4767583      1.8551894
O      -3.2442398     -2.9505305      1.5781752
H      -5.3494536     -1.4081243      0.3955939
H      -1.0729480     -0.6568646      3.3932966
H      -4.6861139      1.2034603      0.9173477
H      -0.2586025     -0.9805814      1.8316733
          85

O      -1.6652323      2.4352701     -0.8555384
C      -2.8443623      2.1753797     -0.8279154
O      -3.7982983      3.0924719     -0.6751384
C      -3.3965604      4.4026832     -0.2713544
C      -4.6373238      5.2586399     -0.1887251
C      -3.4639266      0.8040500     -0.8768684
N      -2.5640233     -0.2132284     -1.2843118
C      -3.1604929     -1.3337607     -1.5417576
C      -2.5078925     -2.6485020     -1.6158282
C      -3.2004904     -3.7066503     -2.2228237
C      -2.6438595     -4.9825159     -2.2778970
C      -1.3901497     -5.2182834     -1.7110233
C      -0.7056432     -4.1763284     -1.0818869
C      -1.2595539     -2.9002619     -1.0258924
H      -2.8998493      4.3104105      0.7063667
H      -2.6708156      4.8001736     -0.9963259
H      -5.1186622      5.3363159     -1.1730004
H      -4.3728113      6.2681649      0.1523829
H      -5.3549589      4.8261221      0.5213200
H      -1.0971428     -0.0196112     -0.7772812
H      -4.3885039      0.8524476     -1.4768936
H      -4.2218615     -1.3277260     -1.8272199
H      -4.1861780     -3.5217456     -2.6565425
H      -3.1901711     -5.7956047     -2.7585615
H      -0.9524204     -6.2174462     -1.7475427
H       0.2640160     -4.3594930     -0.6158615
H      -0.7344476     -2.0988775     -0.5047480
H       2.5234655      5.0394505      2.0353390
C       2.1745921      4.0193495      1.9083709
H       3.7167599      2.5958939      2.6720543
H      -0.5394840      5.1576967      1.6829410
C       2.7559937      2.8303782      2.2237057
H      -0.6988152      4.1856538      0.1734180
C      -0.0036499      4.7085113      0.8379732
N       0.9577037      3.7286559      1.3297388
H       6.6532805      0.9561357     -1.2641599
H       6.2660952      1.8743380     -3.5562706
C       5.6353308      1.0349900     -1.6497909
C       5.4173017      1.5550967     -2.9499370
N       1.8748940      1.8421589      1.8304477
H       0.5364732      5.4834575      0.2833930
C       0.7897964      2.4095583      1.2914941
C       4.5769758      0.6280969     -0.8704340
C       4.1362069      1.6527703     -3.4417451
H       2.1051893      0.5122943      4.0940898
H       4.7545612      0.2268044      0.1297904
H       3.9548040      2.0498548     -4.4431971
C       2.1301358      0.4333792      1.9259578
C       2.2374502     -0.1285148      3.2214584
C       3.2400539      0.7193879     -1.3528467
C       3.0218992      1.2387557     -2.6641816
H      -0.0960830      1.8810203      0.9204382
C       2.1195669      0.3030012     -0.5776909
C       1.6880878      1.3222871     -3.1584928
C       2.2747818     -0.3074619      0.7717603
C       2.4855516     -1.4692551      3.3532655
H       1.5260777      1.7192587     -4.1631311
H       2.5636651     -1.9210989      4.3435109
C       0.6206745      0.9212389     -2.3998009
C       0.8315395      0.4008683     -1.0879561
C       2.5280182     -1.7115954      0.9043962
C       2.6352638     -2.2922893      2.2027871
O      -0.1727282      0.0146508     -0.3112876
H      -0.4037076      0.9952340     -2.7664013
C       2.6803418     -2.5478847     -0.2368309
C       2.8899095     -3.6862644      2.3203308
H       2.5898623     -2.1072151     -1.2307684
H       2.9659299     -4.1222903      3.3183106
C       2.9360374     -3.8907911     -0.0903273
C       3.0396811     -4.4678392      1.2003449
H       3.0533135     -4.5202784     -0.9738393
H       3.2381007     -5.5358504      1.3006426
H      -1.2190837     -2.2718282      2.6175913
C      -3.3898815     -1.7517052      1.3370547
C      -4.4080711     -0.9891514      0.7391619
C      -2.7199103      0.4675062      1.4976230
C      -1.1478029     -1.1934012      2.4298656
C      -3.9790133      0.4156077      0.6381896
N      -2.3439198     -0.8079692      1.7263607
O      -2.1318853      1.4793809      1.8627484
O      -3.2391775     -2.9496110      1.5702741
H      -5.3521084     -1.4069425      0.4009385
H      -1.0651845     -0.6520367      3.3845321
H      -4.6881508      1.2072289      0.9161609
H      -0.2570857     -0.9810852      1.8209419
          85

O      -1.6600324      2.4363118     -0.8484670
C      -2.8393302      2.1751267     -0.8294307
O      -3.7939520      3.0929484     -0.6846851
C      -3.3951741      4.4003818     -0.2694760
C      -4.6369938      5.2548288     -0.1879543
C      -3.4617812      0.8045633     -0.8787725
N      -2.5659376     -0.2152945     -1.2855871
C      -3.1628983     -1.3355436     -1.5426446
C      -2.5096670     -2.6500488     -1.6158680
C      -3.2016481     -3.7093752     -2.2214476
C      -2.6436073     -4.9846538     -2.2767192
C      -1.3891280     -5.2190025     -1.7110077
C      -0.7053298     -4.1760532     -1.0827387
C      -1.2605641     -2.9005604     -1.0267964
H      -2.9037011      4.3014177      0.7102980
H      -2.6658295      4.8037126     -0.9876183
H      -5.1144609      5.3360054     -1.1738401
H      -4.3747247      6.2632366      0.1581562
H      -5.3571073      4.8188597      0.5174574
H      -1.0965626     -0.0206221     -0.7780674
H      -4.3873503      0.8552116     -1.4760699
H      -4.2254111     -1.3297896     -1.8239055
H      -4.1879344     -3.5258811     -2.6544289
H      -3.1895086     -5.7983909     -2.7567534
H      -0.9503072     -6.2176802     -1.7477385
H       0.2648975     -4.3579464     -0.6174043
H      -0.7357164     -2.0986157     -0.5063295
H       2.5232645      5.0394223      2.0356100
C       2.1742942      4.0193818      1.9084209
H       3.7161987      2.5955996      2.6719932
H      -0.5369851      5.1606114      1.6840291
C       2.7555033      2.8302953      2.2236041
H      -0.7007272      4.1867648      0.1761333
C      -0.0035723      4.7095532      0.8385327
N       0.9573980      3.7289956      1.3297124
H       6.6531226      0.9559076     -1.2642636
H       6.2659799      1.8739871     -3.5564186
C       5.6351780      1.0347457     -1.6499073
C       5.4171712      1.5547915     -2.9500837
N       1.8743108      1.8422483      1.8301452
H       0.5365606      5.4829703      0.2818162
C       0.7892460      2.4099083      1.2912674
C       4.5768130      0.6278871     -0.8705435
C       4.1360993      1.6524994     -3.4419088
H       2.1047875      0.5124588      4.0938576
H       4.7543860      0.2266274      0.1296945
H       3.9547043      2.0495857     -4.4433581
C       2.1297081      0.4334745      1.9257206
C       2.2371284     -0.1283580      3.2212432
C       3.2398990      0.7192468     -1.3529737
C       3.0217780      1.2386268     -2.6642960
H      -0.0966497      1.8817130      0.9198016
C       2.1193301      0.3029653     -0.5778353
C       1.6879989      1.3225439     -3.1585699
C       2.2745779     -0.3074584      0.7716151
C       2.4853954     -1.4690695      3.3531216
H       1.5260407      1.7196335     -4.1631630
H       2.5635488     -1.9208254      4.3434041
C       0.6205386      0.9217422     -2.3998451
C       0.8314070      0.4010726     -1.0882237
C       2.5279647     -1.7115631      0.9042995
C       2.6352071     -2.2921940      2.2027171
O      -0.1730938      0.0146775     -0.3117527
H      -0.4038024      0.9959647     -2.7665291
C       2.6802764     -2.5478983     -0.2368911
C       2.8898773     -3.6861632      2.3203265
H       2.5897652     -2.1072970     -1.2308566
H       2.9658981     -4.1221498      3.3183227
C       2.9359745     -3.8907994     -0.0903263
C       3.0396402     -4.4677862      1.2003684
H       3.0532251     -4.5203279     -0.9738119
H       3.2380560     -5.5357934      1.3007077
H      -1.2153807     -2.2691349      2.6140948
C      -3.3886512     -1.7506494      1.3361542
C      -4.4126659     -0.9871368      0.7477207
C      -2.7242565      0.4690041      1.5011280
C      -1.1440618     -1.1912664      2.4231031
C      -3.9834786      0.4164860      0.6428300
N      -2.3429336     -0.8065274      1.7235292
O      -2.1388067      1.4810152      1.8693207
O      -3.2342200     -2.9492789      1.5628389
H      -5.3568116     -1.4063984      0.4114604
H      -1.0573822     -0.6472157      3.3758688
H      -4.6916116      1.2109200      0.9151930
H      -0.2554671     -0.9815675      1.8103914
          85

O      -1.6546668      2.4396762     -0.8426458
C      -2.8339860      2.1758375     -0.8332297
O      -3.7901356      3.0930885     -0.6922201
C      -3.3942610      4.3981566     -0.2676654
C      -4.6366803      5.2518213     -0.1874111
C      -3.4581948      0.8064358     -0.8855205
N      -2.5675766     -0.2162500     -1.2891697
C      -3.1651491     -1.3369506     -1.5438491
C      -2.5110993     -2.6511062     -1.6153131
C      -3.2022809     -3.7113545     -2.2201714
C      -2.6432420     -4.9861786     -2.2758844
C      -1.3882865     -5.2197680     -1.7109789
C      -0.7050250     -4.1760338     -1.0834132
C      -1.2611971     -2.9008971     -1.0272565
H      -2.9070176      4.2940692      0.7137459
H      -2.6619432      4.8061731     -0.9801461
H      -5.1113784      5.3349841     -1.1744774
H      -4.3755941      6.2595901      0.1614621
H      -5.3587472      4.8143035      0.5150416
H      -1.0956410     -0.0211014     -0.7788998
H      -4.3866319      0.8583038     -1.4779664
H      -4.2286020     -1.3316548     -1.8216428
H      -4.1888582     -3.5287948     -2.6528835
H      -3.1888570     -5.8001644     -2.7558342
H      -0.9486885     -6.2180941     -1.7479829
H       0.2657445     -4.3569483     -0.6188204
H      -0.7361780     -2.0986668     -0.5074523
H       2.5230570      5.0394091      2.0358410
C       2.1740375      4.0194113      1.9084440
H       3.7157138      2.5953984      2.6720334
H      -0.5349909      5.1628526      1.6847915
C       2.7550992      2.8302437      2.2235489
H      -0.7023783      4.1873909      0.1783426
C      -0.0035967      4.7102584      0.8388494
N       0.9571792      3.7292434      1.3295893
H       6.6530267      0.9557913     -1.2643520
H       6.2658596      1.8737593     -3.5565379
C       5.6350805      1.0345842     -1.6499964
C       5.4170554      1.5545719     -2.9501934
N       1.8738749      1.8423145      1.8298801
H       0.5364458      5.4824418      0.2803229
C       0.7888678      2.4101690      1.2909565
C       4.5767217      0.6277284     -0.8706210
C       4.1359951      1.6522668     -3.4420300
H       2.1045340      0.5125819      4.0936925
H       4.7542944      0.2265086      0.1296315
H       3.9545966      2.0493752     -4.4434628
C       2.1294151      0.4335564      1.9255493
C       2.2369172     -0.1282389      3.2210866
C       3.2398158      0.7191070     -1.3530637
C       3.0216759      1.2384773     -2.6643698
H      -0.0970194      1.8822834      0.9190482
C       2.1191976      0.3029047     -0.5779031
C       1.6878968      1.3227002     -3.1585559
C       2.2744782     -0.3074724      0.7715373
C       2.4852923     -1.4689372      3.3530196
H       1.5259307      1.7198661     -4.1631150
H       2.5634866     -1.9206182      4.3433338
C       0.6204236      0.9221525     -2.3997432
C       0.8313680      0.4012484     -1.0883266
C       2.5279371     -1.7115574      0.9042432
C       2.6351645     -2.2921455      2.2026774
O      -0.1733739      0.0147678     -0.3119284
H      -0.4038941      0.9966440     -2.7664381
C       2.6802144     -2.5479134     -0.2369322
C       2.8898495     -3.6861126      2.3203223
H       2.5896618     -2.1073610     -1.2309156
H       2.9658807     -4.1220817      3.3183248
C       2.9359144     -3.8908094     -0.0903333
C       3.0396101     -4.4677566      1.2003738
H       3.0531288     -4.5203641     -0.9738041
H       3.2380322     -5.5357602      1.3007322
H      -1.2113551     -2.2671417      2.6119697
C      -3.3867726     -1.7501539      1.3365606
C      -4.4177469     -0.9857634      0.7578057
C      -2.7296653      0.4695864      1.5054518
C      -1.1404355     -1.1897898      2.4178384
C      -3.9907712      0.4159617      0.6511081
N      -2.3418860     -0.8061885      1.7213013
O      -2.1445174      1.4812708      1.8737975
O      -3.2302081     -2.9494274      1.5566224
H      -5.3633438     -1.4070760      0.4280341
H      -1.0509641     -0.6431909      3.3688677
H      -4.6979317      1.2140166      0.9137850
H      -0.2535105     -0.9821547      1.8022253
          85

O      -1.6500978      2.4433844     -0.8381327
C      -2.8294558      2.1769532     -0.8386525
O      -3.7875470      3.0929237     -0.6968825
C      -3.3938110      4.3963261     -0.2663208
C      -4.6364320      5.2498835     -0.1870897
C      -3.4531263      0.8096048     -0.8975682
N      -2.5686042     -0.2162599     -1.2934198
C      -3.1668975     -1.3379218     -1.5449069
C      -2.5121016     -2.6516487     -1.6144927
C      -3.2024753     -3.7125378     -2.2192594
C      -2.6428953     -4.9870867     -2.2753715
C      -1.3877126     -5.2204635     -1.7109287
C      -0.7047780     -4.1761789     -1.0839118
C      -1.2614583     -2.9012012     -1.0274944
H      -2.9091322      4.2894139      0.7161001
H      -2.6595887      4.8073043     -0.9751738
H      -5.1095100      5.3339983     -1.1748632
H      -4.3757502      6.2573389      0.1630207
H      -5.3598179      4.8120061      0.5137910
H      -1.0946880     -0.0209838     -0.7794075
H      -4.3868844      0.8601188     -1.4809208
H      -4.2305900     -1.3325879     -1.8218633
H      -4.1891193     -3.5305371     -2.6520606
H      -3.1883726     -5.8010693     -2.7555071
H      -0.9477051     -6.2185993     -1.7481328
H       0.2664216     -4.3564288     -0.6199331
H      -0.7359940     -2.0988922     -0.5082822
H       2.5229086      5.0394000      2.0360067
C       2.1738610      4.0194310      1.9084543
H       3.7153732      2.5952637      2.6720898
H      -0.5337135      5.1642538      1.6852140
C       2.7548228      2.8302095      2.2235199
H      -0.7035438      4.1875494      0.1798293
C      -0.0036891      4.7106317      0.8389654
N       0.9570445      3.7294045      1.3294689
H       6.6529750      0.9557310     -1.2644119
H       6.2657708      1.8736219     -3.5566169
C       5.6350261      1.0344847     -1.6500541
C       5.4169753      1.5544313     -2.9502622
N       1.8735814      1.8423562      1.8296919
H       0.5362397      5.4820098      0.2792078
C       0.7886342      2.4103480      1.2906681
C       4.5766740      0.6276266     -0.8706701
C       4.1359188      1.6521060     -3.4421063
H       2.1044068      0.5126624      4.0935879
H       4.7542458      0.2264403      0.1295950
H       3.9545164      2.0492095     -4.4435382
C       2.1292299      0.4336185      1.9254376
C       2.2367892     -0.1281638      3.2209845
C       3.2397785      0.7190027     -1.3531252
C       3.0216028      1.2383535     -2.6644185
H      -0.0972339      1.8827692      0.9182640
C       2.1191388      0.3028513     -0.5779376
C       1.6878057      1.3227724     -3.1585167
C       2.2744325     -0.3074863      0.7714963
C       2.4852280     -1.4688577      3.3529571
H       1.5258058      1.7200258     -4.1630307
H       2.5634674     -1.9204849      4.3432934
C       0.6203280      0.9224367     -2.3996118
C       0.8313784      0.4013715     -1.0883447
C       2.5279176     -1.7115610      0.9042129
C       2.6351318     -2.2921258      2.2026562
O      -0.1734828      0.0148148     -0.3118879
H      -0.4039829      0.9972212     -2.7662606
C       2.6801655     -2.5479239     -0.2369579
C       2.8898289     -3.6860918      2.3203177
H       2.5895685     -2.1074023     -1.2309505
H       2.9658781     -4.1220543      3.3183218
C       2.9358690     -3.8908153     -0.0903427
C       3.0395912     -4.4677411      1.2003697
H       3.0530469     -4.5203842     -0.9738066
H       3.2380247     -5.5357418      1.3007332
H      -1.2077583     -2.2660210      2.6112971
C      -3.3841528     -1.7499501      1.3375349
C      -4.4220843     -0.9848102      0.7667787
C      -2.7349471      0.4696325      1.5099865
C      -1.1374744     -1.1890826      2.4145860
C      -4.0002305      0.4140031      0.6636969
N      -2.3407789     -0.8067081      1.7197533
O      -2.1482456      1.4806861      1.8761176
O      -3.2277499     -2.9495770      1.5521993
H      -5.3694759     -1.4084425      0.4451845
H      -1.0468340     -0.6404124      3.3642879
H      -4.7066538      1.2163163      0.9131374
H      -0.2514909     -0.9827946      1.7973588
          85

O      -1.6464245      2.4465323     -0.8345588
C      -2.8258640      2.1779835     -0.8442103
O      -3.7858748      3.0926789     -0.6997521
C      -3.3935879      4.3948756     -0.2653651
C      -4.6362473      5.2486146     -0.1868890
C      -3.4472117      0.8134436     -0.9124818
N      -2.5692957     -0.2158606     -1.2971496
C      -3.1682456     -1.3386571     -1.5457601
C      -2.5128014     -2.6518987     -1.6137406
C      -3.2024793     -3.7132856     -2.2186495
C      -2.6426090     -4.9876665     -2.2750269
C      -1.3873101     -5.2210457     -1.7108742
C      -0.7045822     -4.1763719     -1.0842799
C      -1.2615265     -2.9014550     -1.0276753
H      -2.9104090      4.2865714      0.7176799
H      -2.6581493      4.8077483     -0.9719193
H      -5.1083445      5.3332226     -1.1751018
H      -4.3757068      6.2559066      0.1638334
H      -5.3605420      4.8107475      0.5130776
H      -1.0938657     -0.0205277     -0.7796254
H      -4.3878839      0.8608684     -1.4840018
H      -4.2316857     -1.3329637     -1.8236600
H      -4.1891000     -3.5316018     -2.6516459
H      -3.1880373     -5.8015751     -2.7553756
H      -0.9470544     -6.2190632     -1.7481944
H       0.2669466     -4.3562668     -0.6208257
H      -0.7355793     -2.0991464     -0.5089552
H       2.5228040      5.0393915      2.0361206
C       2.1737366      4.0194432      1.9084571
H       3.7151319      2.5951667      2.6721334
H      -0.5328903      5.1651452      1.6854489
C       2.7546287      2.8301842      2.2235000
H      -0.7043702      4.1874820      0.1808432
C      -0.0037983      4.7108336      0.8389867
N       0.9569546      3.7295151      1.3293743
H       6.6529429      0.9556917     -1.2644531
H       6.2657070      1.8735292     -3.5566716
C       5.6349919      1.0344160     -1.6500938
C       5.4169195      1.5543331     -2.9503084
N       1.8733698      1.8423831      1.8295590
H       0.5360382      5.4816849      0.2784063
C       0.7884727      2.4104788      1.2904289
C       4.5766438      0.6275572     -0.8707041
C       4.1358633      1.6519907     -3.4421571
H       2.1043340      0.5127173      4.0935176
H       4.7542133      0.2263976      0.1295716
H       3.9544582      2.0490919     -4.4435879
C       2.1291014      0.4336662      1.9253603
C       2.2367015     -0.1281146      3.2209144
C       3.2397583      0.7189261     -1.3531695
C       3.0215492      1.2382566     -2.6644539
H      -0.0973749      1.8832160      0.9174925
C       2.1191084      0.3028098     -0.5779610
C       1.6877309      1.3228047     -3.1584814
C       2.2744043     -0.3074978      0.7714702
C       2.4851834     -1.4688076      3.3529163
H       1.5256989      1.7201306     -4.1629578
H       2.5634657     -1.9203964      4.3432682
C       0.6202480      0.9226385     -2.3994996
C       0.8313999      0.4014609     -1.0883406
C       2.5278998     -1.7115669      0.9041938
C       2.6351055     -2.2921176      2.2026430
O      -0.1734988      0.0148256     -0.3117806
H      -0.4040658      0.9977343     -2.7660693
C       2.6801283     -2.5479312     -0.2369753
C       2.8898127     -3.6860832      2.3203131
H       2.5894849     -2.1074307     -1.2309721
H       2.9658823     -4.1220422      3.3183174
C       2.9358342     -3.8908165     -0.0903511
C       3.0395782     -4.4677304      1.2003625
H       3.0529641     -4.5203984     -0.9738107
H       3.2380223     -5.5357291      1.3007250
H      -1.2047136     -2.2653820      2.6113568
C      -3.3812484     -1.7498471      1.3385865
C      -4.4255590     -0.9839171      0.7740120
C      -2.7394741      0.4695075      1.5140787
C      -1.1351687     -1.1887742      2.4125571
C      -4.0102034      0.4111503      0.6788515
N      -2.3397460     -0.8076015      1.7186565
O      -2.1506996      1.4798876      1.8772823
O      -3.2263156     -2.9495811      1.5489938
H      -5.3743862     -1.4097276      0.4596394
H      -1.0442453     -0.6384533      3.3612500
H      -4.7156368      1.2182504      0.9127444
H      -0.2497208     -0.9833613      1.7944415
          85

O      -1.6433299      2.4491889     -0.8315353
C      -2.8228870      2.1788240     -0.8494531
O      -3.7847077      3.0924467     -0.7017347
C      -3.3934618      4.3936618     -0.2646349
C      -4.6361058      5.2476825     -0.1867483
C      -3.4408596      0.8176140     -0.9287464
N      -2.5698768     -0.2152993     -1.3002862
C      -3.1693426     -1.3392961     -1.5465192
C      -2.5133207     -2.6519990     -1.6131139
C      -3.2024035     -3.7138315     -2.2182100
C      -2.6423599     -4.9880941     -2.2747548
C      -1.3869853     -5.2215716     -1.7108216
C      -0.7044314     -4.1765557     -1.0845797
C      -1.2615137     -2.9016733     -1.0278573
H      -2.9112596      4.2846827      0.7188529
H      -2.6571465      4.8079179     -0.9695447
H      -5.1075319      5.3325910     -1.1752684
H      -4.3756421      6.2548775      0.1643486
H      -5.3610872      4.8099130      0.5125898
H      -1.0931392     -0.0198855     -0.7796777
H      -4.3893535      0.8609358     -1.4863955
H      -4.2323146     -1.3330796     -1.8261271
H      -4.1889687     -3.5323598     -2.6514370
H      -3.1877918     -5.8019141     -2.7552970
H      -0.9465843     -6.2195164     -1.7482114
H       0.2673456     -4.3561322     -0.6214721
H      -0.7350853     -2.0994148     -0.5095449
H       2.5227204      5.0393830      2.0362029
C       2.1736367      4.0194510      1.9084542
H       3.7149416      2.5950899      2.6721652
H      -0.5322953      5.1657853      1.6855954
C       2.7544751      2.8301636      2.2234823
H      -0.7050195      4.1873153      0.1816101
C      -0.0039108      4.7109582      0.8389660
N       0.9568835      3.7296000      1.3292959
H       6.6529185      0.9556594     -1.2644854
H       6.2656565      1.8734543     -3.5567149
C       5.6349659      1.0343607     -1.6501253
C       5.4168759      1.5542537     -2.9503441
N       1.8731968      1.8424023      1.8294549
H       0.5358563      5.4814244      0.2777811
C       0.7883406      2.4105850      1.2902227
C       4.5766197      0.6275028     -0.8707311
C       4.1358180      1.6518970     -3.4421963
H       2.1042783      0.5127602      4.0934615
H       4.7541870      0.2263659      0.1295540
H       3.9544113      2.0489967     -4.4436264
C       2.1289983      0.4337064      1.9252993
C       2.2366320     -0.1280788      3.2208598
C       3.2397442      0.7188640     -1.3532057
C       3.0215051      1.2381749     -2.6644832
H      -0.0974915      1.8836553      0.9167285
C       2.1190878      0.3027755     -0.5779807
C       1.6876659      1.3228186     -3.1584517
C       2.2743809     -0.3075067      0.7714497
C       2.4851470     -1.4687720      3.3528860
H       1.5256050      1.7202091     -4.1628951
H       2.5634713     -1.9203305      4.3432501
C       0.6201770      0.9227967     -2.3994059
C       0.8314233      0.4015344     -1.0883325
C       2.5278814     -1.7115734      0.9041787
C       2.6350823     -2.2921141      2.2026327
O      -0.1734748      0.0148158     -0.3116589
H      -0.4041457      0.9982173     -2.7658778
C       2.6800954     -2.5479398     -0.2369894
C       2.8897979     -3.6860792      2.3203082
H       2.5894118     -2.1074533     -1.2309879
H       2.9658892     -4.1220350      3.3183133
C       2.9358094     -3.8908193     -0.0903601
C       3.0395669     -4.4677250      1.2003550
H       3.0529135     -4.5204063     -0.9738144
H       3.2380243     -5.5357214      1.3007179
H      -1.2020481     -2.2649654      2.6117127
C      -3.3782292     -1.7498268      1.3396538
C      -4.4285094     -0.9829230      0.7800542
C      -2.7433879      0.4693449      1.5176599
C      -1.1332853     -1.1886364      2.4111340
C      -4.0201258      0.4077929      0.6952539
N      -2.3388111     -0.8086379      1.7177963
O      -2.1525095      1.4790643      1.8779251
O      -3.2254208     -2.9494603      1.5464416
H      -5.3783480     -1.4107968      0.4716448
H      -1.0424655     -0.6369225      3.3590002
H      -4.7241329      1.2200276      0.9120084
H      -0.2481962     -0.9838442      1.7924574
          85

O      -1.6405905      2.4515134     -0.8288384
C      -2.8202873      2.1794888     -0.8543473
O      -3.7838278      3.0922450     -0.7032547
C      -3.3933770      4.3925908     -0.2640396
C      -4.6359927      5.2469274     -0.1866386
C      -3.4342714      0.8219776     -0.9457106
N      -2.5704407     -0.2146669     -1.3029600
C      -3.1702664     -1.3398918     -1.5472675
C      -2.5137230     -2.6520224     -1.6125977
C      -3.2022933     -3.7142772     -2.2178729
C      -2.6421439     -4.9884436     -2.2745204
C      -1.3867117     -5.2220476     -1.7107716
C      -0.7042958     -4.1767542     -1.0848440
C      -1.2614359     -2.9018748     -1.0280422
H      -2.9119040      4.2833208      0.7198083
H      -2.6563811      4.8079784     -0.9676639
H      -5.1069192      5.3320481     -1.1753928
H      -4.3756000      6.2540598      0.1647329
H      -5.3615370      4.8092663      0.5122094
H      -1.0924609     -0.0191246     -0.7796353
H      -4.3911096      0.8605788     -1.4880071
H      -4.2326915     -1.3330968     -1.8288377
H      -4.1887860     -3.5329585     -2.6513429
H      -3.1875857     -5.8021841     -2.7552258
H      -0.9462082     -6.2199380     -1.7482116
H       0.2676863     -4.3560185     -0.6220205
H      -0.7345576     -2.0996672     -0.5101012
H       2.5226455      5.0393743      2.0362645
C       2.1735469      4.0194562      1.9084461
H       3.7147765      2.5950245      2.6721883
H      -0.5318281      5.1662879      1.6856923
C       2.7543409      2.8301460      2.2234644
H      -0.7055747      4.1870981      0.1822380
C      -0.0040252      4.7110448      0.8389211
N       0.9568195      3.7296706      1.3292254
H       6.6528970      0.9556289     -1.2645135
H       6.2656125      1.8733858     -3.5567531
C       5.6349432      1.0343105     -1.6501532
C       5.4168379      1.5541817     -2.9503753
N       1.8730419      1.8424172      1.8293658
H       0.5356931      5.4812053      0.2772594
C       0.7882196      2.4106778      1.2900346
C       4.5765975      0.6274548     -0.8707551
C       4.1357776      1.6518128     -3.4422305
H       2.1042332      0.5127971      4.0934134
H       4.7541627      0.2263390      0.1295389
H       3.9543698      2.0489105     -4.4436603
C       2.1289063      0.4337427      1.9252468
C       2.2365695     -0.1280497      3.2208132
C       3.2397318      0.7188089     -1.3532381
C       3.0214653      1.2381005     -2.6645101
H      -0.0976035      1.8841025      0.9159576
C       2.1190702      0.3027449     -0.5779985
C       1.6876053      1.3228225     -3.1584267
C       2.2743583     -0.3075148      0.7714320
C       2.4851134     -1.4687433      3.3528604
H       1.5255179      1.7202736     -4.1628392
H       2.5634800     -1.9202762      4.3432343
C       0.6201101      0.9229305     -2.3993234
C       0.8314472      0.4015999     -1.0883245
C       2.5278621     -1.7115798      0.9041657
C       2.6350597     -2.2921127      2.2026233
O      -0.1734335      0.0147959     -0.3115357
H      -0.4042257      0.9986905     -2.7656837
C       2.6800643     -2.5479448     -0.2370026
C       2.8897837     -3.6860766      2.3203031
H       2.5893384     -2.1074719     -1.2310022
H       2.9658977     -4.1220310      3.3183075
C       2.9357840     -3.8908212     -0.0903686
C       3.0395558     -4.4677192      1.2003466
H       3.0528560     -4.5204142     -0.9738246
H       3.2380251     -5.5357138      1.3007062
H      -1.1996110     -2.2646559      2.6122132
C      -3.3751427     -1.7498413      1.3407183
C      -4.4311676     -0.9818038      0.7853775
C      -2.7468829      0.4692035      1.5208314
C      -1.1316619     -1.1885766      2.4100342
C      -4.0298864      0.4041461      0.7123198
N      -2.3379606     -0.8097524      1.7170676
O      -2.1539807      1.4782455      1.8783131
O      -3.2248246     -2.9492730      1.5442633
H      -5.3816280     -1.4117259      0.4818164
H      -1.0411230     -0.6356299      3.3571804
H      -4.7320386      1.2216852      0.9107211
H      -0.2468576     -0.9842550      1.7909467
          85

O      -1.6380698      2.4536172     -0.8263383
C      -2.8179241      2.1800009     -0.8589469
O      -3.7831232      3.0920794     -0.7045148
C      -3.3933155      4.3916083     -0.2635350
C      -4.6359022      5.2462698     -0.1865449
C      -3.4275622      0.8264680     -0.9630728
N      -2.5710236     -0.2139992     -1.3052834
C      -3.1710576     -1.3404705     -1.5480530
C      -2.5140433     -2.6519913     -1.6121741
C      -3.2021590     -3.7146675     -2.2176004
C      -2.6419419     -4.9887521     -2.2743034
C      -1.3864597     -5.2225107     -1.7107217
C      -0.7041724     -4.1769359     -1.0850836
C      -1.2613276     -2.9020643     -1.0282494
H      -2.9124143      4.2822748      0.7206220
H      -2.6557475      4.8080015     -0.9660664
H      -5.1064262      5.3315540     -1.1754922
H      -4.3755952      6.2533597      0.1650568
H      -5.3619332      4.8087009      0.5118828
H      -1.0918119     -0.0182830     -0.7795381
H      -4.3929728      0.8599632     -1.4888738
H      -4.2329232     -1.3330852     -1.8316143
H      -4.1885720     -3.5334662     -2.6513188
H      -3.1874194     -5.8024162     -2.7551499
H      -0.9458909     -6.2203622     -1.7481892
H       0.2679889     -4.3559609     -0.6224878
H      -0.7340012     -2.0999287     -0.5106447
H       2.5225743      5.0393645      2.0363067
C       2.1734586      4.0194594      1.9084321
H       3.7146221      2.5949666      2.6722042
H      -0.5314403      5.1667102      1.6857563
C       2.7542139      2.8301301      2.2234441
H      -0.7060747      4.1868538      0.1827746
C      -0.0041426      4.7111107      0.8388586
N       0.9567554      3.7297325      1.3291570
H       6.6528759      0.9555967     -1.2645400
H       6.2655712      1.8733171     -3.5567897
C       5.6349209      1.0342608     -1.6501798
C       5.4168021      1.5541108     -2.9504051
N       1.8728932      1.8424293      1.8292841
H       0.5355392      5.4810133      0.2767995
C       0.7881003      2.4107625      1.2898557
C       4.5765750      0.6274089     -0.8707780
C       4.1357390      1.6517309     -3.4422634
H       2.1041913      0.5128304      4.0933690
H       4.7541376      0.2263134      0.1295247
H       3.9543307      2.0488260     -4.4436934
C       2.1288175      0.4337767      1.9251980
C       2.2365083     -0.1280247      3.2207701
C       3.2397193      0.7187565     -1.3532693
C       3.0214268      1.2380284     -2.6645368
H      -0.0977180      1.8845619      0.9151676
C       2.1190532      0.3027163     -0.5780164
C       1.6875458      1.3228191     -3.1584054
C       2.2743341     -0.3075222      0.7714149
C       2.4850801     -1.4687187      3.3528368
H       1.5254335      1.7203285     -4.1627882
H       2.5634892     -1.9202283      4.3432199
C       0.6200437      0.9230500     -2.3992489
C       0.8314698      0.4016614     -1.0883173
C       2.5278401     -1.7115866      0.9041524
C       2.6350362     -2.2921124      2.2026137
O      -0.1733824      0.0147688     -0.3114136
H      -0.4043086      0.9991657     -2.7654833
C       2.6800321     -2.5479521     -0.2370158
C       2.8897686     -3.6860752      2.3202969
H       2.5892666     -2.1074893     -1.2310150
H       2.9659058     -4.1220271      3.3183018
C       2.9357606     -3.8908230     -0.0903787
C       3.0395439     -4.4677152      1.2003373
H       3.0528096     -4.5204189     -0.9738305
H       3.2380271     -5.5357078      1.3006960
H      -1.1973148     -2.2644039      2.6127877
C      -3.3720053     -1.7498850      1.3417900
C      -4.4336668     -0.9805699      0.7902740
C      -2.7500982      0.4690861      1.5236922
C      -1.1302024     -1.1885562      2.4091264
C      -4.0394830      0.4003311      0.7297797
N      -2.3371752     -0.8109101      1.7164199
O      -2.1552554      1.4774383      1.8785671
O      -3.2244037     -2.9490498      1.5423038
H      -5.3844029     -1.4125663      0.4905774
H      -1.0400415     -0.6344742      3.3556137
H      -4.7393405      1.2232524      0.9088207
H      -0.2456575     -0.9846091      1.7896931
          85

O      -1.6356850      2.4555703     -0.8239571
C      -2.8157089      2.1803903     -0.8633013
O      -3.7825277      3.0919468     -0.7056219
C      -3.3932669      4.3906866     -0.2630949
C      -4.6358341      5.2456639     -0.1864603
C      -3.4207840      0.8310511     -0.9806826
N      -2.5716377     -0.2133110     -1.3073409
C      -3.1717350     -1.3410405     -1.5489044
C      -2.5142973     -2.6519276     -1.6118320
C      -3.2020099     -3.7150277     -2.2173772
C      -2.6417556     -4.9890379     -2.2740962
C      -1.3862281     -5.2229529     -1.7106706
C      -0.7040461     -4.1771342     -1.0853159
C      -1.2611723     -2.9022500     -1.0284725
H      -2.9128410      4.2814327      0.7213415
H      -2.6551985      4.8080237     -0.9646481
H      -5.1060144      5.3310859     -1.1755752
H      -4.3756401      6.2527234      0.1653586
H      -5.3623006      4.8081567      0.5115826
H      -1.0911686     -0.0173736     -0.7794086
H      -4.3949313      0.8591508     -1.4889646
H      -4.2330567     -1.3330743     -1.8343861
H      -4.1883355     -3.5339199     -2.6513511
H      -3.1872749     -5.8026329     -2.7550618
H      -0.9456086     -6.2207727     -1.7481557
H       0.2682771     -4.3559002     -0.6229287
H      -0.7334177     -2.1001766     -0.5111992
H       2.5224966      5.0393546      2.0363358
C       2.1733655      4.0194615      1.9084096
H       3.7144683      2.5949137      2.6722133
H      -0.5311091      5.1670810      1.6857936
C       2.7540856      2.8301155      2.2234192
H      -0.7065403      4.1865933      0.1832430
C      -0.0042658      4.7111646      0.8387797
N       0.9566856      3.7297886      1.3290861
H       6.6528531      0.9555604     -1.2645665
H       6.2655303      1.8732431     -3.5568272
C       5.6348973      1.0342080     -1.6502069
C       5.4167660      1.5540361     -2.9504357
N       1.8727425      1.8424393      1.8292052
H       0.5353930      5.4808400      0.2763784
C       0.7879759      2.4108421      1.2896796
C       4.5765500      0.6273617     -0.8708015
C       4.1357002      1.6516459     -3.4422977
H       2.1041474      0.5128619      4.0933257
H       4.7541098      0.2262869      0.1295103
H       3.9542920      2.0487374     -4.4437285
C       2.1287261      0.4338094      1.9251504
C       2.2364442     -0.1280017      3.2207281
C       3.2397051      0.7187039     -1.3533013
C       3.0213873      1.2379548     -2.6645650
H      -0.0978374      1.8850363      0.9143467
C       2.1190345      0.3026881     -0.5780348
C       1.6874849      1.3228093     -3.1583873
C       2.2743065     -0.3075298      0.7713975
C       2.4850447     -1.4686959      3.3528133
H       1.5253482      1.7203747     -4.1627415
H       2.5634982     -1.9201832      4.3432046
C       0.6199748      0.9231602     -2.3991794
C       0.8314927      0.4017216     -1.0883123
C       2.5278146     -1.7115934      0.9041386
C       2.6350099     -2.2921127      2.2026031
O      -0.1733271      0.0147372     -0.3112913
H      -0.4043955      0.9996467     -2.7652815
C       2.6799972     -2.5479566     -0.2370302
C       2.8897520     -3.6860736      2.3202895
H       2.5891882     -2.1075054     -1.2310296
H       2.9659137     -4.1220243      3.3182938
C       2.9357325     -3.8908243     -0.0903893
C       3.0395304     -4.4677098      1.2003263
H       3.0527497     -4.5204251     -0.9738434
H       3.2380267     -5.5357005      1.3006811
H      -1.1951093     -2.2641846      2.6134006
C      -3.3688168     -1.7499496      1.3428842
C      -4.4360921     -0.9792427      0.7949262
C      -2.7531171      0.4689937      1.5263183
C      -1.1288480     -1.1885568      2.4083398
C      -4.0489250      0.3964244      0.7474845
N      -2.3364404     -0.8120982      1.7158264
O      -2.1564114      1.4766400      1.8787490
O      -3.2240882     -2.9488064      1.5404738
H      -5.3868034     -1.4133249      0.4981891
H      -1.0391210     -0.6334037      3.3542050
H      -4.7460685      1.2247198      0.9062604
H      -0.2445641     -0.9849128      1.7885824
          85

O      -1.6333727      2.4574227     -0.8216393
C      -2.8135791      2.1806815     -0.8674463
O      -3.7819916      3.0918471     -0.7066484
C      -3.3932250      4.3898088     -0.2627043
C      -4.6357935      5.2450758     -0.1863794
C      -3.4139781      0.8357064     -0.9984498
N      -2.5722787     -0.2126114     -1.3091925
C      -3.1723030     -1.3416111     -1.5498391
C      -2.5144948     -2.6518323     -1.6115667
C      -3.2018428     -3.7153708     -2.2171905
C      -2.6415702     -4.9893132     -2.2738892
C      -1.3860000     -5.2234041     -1.7106141
C      -0.7039177     -4.1773173     -1.0855423
C      -1.2609904     -2.9024301     -1.0287353
H      -2.9132136      4.2807251      0.7219935
H      -2.6547033      4.8080759     -0.9633401
H      -5.1056644      5.3306244     -1.1756472
H      -4.3757517      6.2521131      0.1656640
H      -5.3626582      4.8075823      0.5112889
H      -1.0905295     -0.0164205     -0.7792570
H      -4.3968720      0.8582063     -1.4883050
H      -4.2331167     -1.3330800     -1.8371142
H      -4.1880789     -3.5343403     -2.6514220
H      -3.1871478     -5.8028465     -2.7549519
H      -0.9453572     -6.2212025     -1.7481021
H       0.2685566     -4.3559141     -0.6233475
H      -0.7327990     -2.1004349     -0.5117784
H       2.5224036      5.0393452      2.0363486
C       2.1732605      4.0194622      1.9083746
H       3.7143058      2.5948647      2.6722130
H      -0.5308216      5.1674192      1.6858054
C       2.7539471      2.8301020      2.2233864
H      -0.7069879      4.1863240      0.1836538
C      -0.0043991      4.7112117      0.8386822
N       0.9566032      3.7298399      1.3290072
H       6.6528266      0.9555163     -1.2645947
H       6.2654873      1.8731577     -3.5568679
C       5.6348700      1.0341481     -1.6502362
C       5.4167272      1.5539521     -2.9504692
N       1.8725806      1.8424475      1.8291249
H       0.5352493      5.4806804      0.2759786
C       0.7878383      2.4109173      1.2895006
C       4.5765207      0.6273100     -0.8708270
C       4.1356587      1.6515521     -3.4423359
H       2.1040966      0.5128922      4.0932806
H       4.7540762      0.2262572      0.1294948
H       3.9542519      2.0486379     -4.4437685
C       2.1286263      0.4338414      1.9251010
C       2.2363730     -0.1279800      3.2206845
C       3.2396872      0.7186479     -1.3533362
C       3.0213443      1.2378754     -2.6645972
H      -0.0979701      1.8855250      0.9134935
C       2.1190124      0.3026594     -0.5780557
C       1.6874199      1.3227924     -3.1583732
C       2.2742727     -0.3075374      0.7713778
C       2.4850051     -1.4686742      3.3527880
H       1.5252591      1.7204122     -4.1626997
H       2.5635053     -1.9201390      4.3431879
C       0.6199009      0.9232650     -2.3991135
C       0.8315123      0.4017809     -1.0883086
C       2.5277824     -1.7116009      0.9041222
C       2.6349792     -2.2921130      2.2025903
O      -0.1732691      0.0147011     -0.3111686
H      -0.4044899      1.0001354     -2.7650769
C       2.6799562     -2.5479645     -0.2370467
C       2.8897319     -3.6860726      2.3202795
H       2.5891048     -2.1075225     -1.2310449
H       2.9659192     -4.1220201      3.3182846
C       2.9357030     -3.8908254     -0.0904031
C       3.0395140     -4.4677055      1.2003131
H       3.0526958     -4.5204295     -0.9738527
H       3.2380265     -5.5356938      1.3006671
H      -1.1929556     -2.2639802      2.6140333
C      -3.3655844     -1.7500372      1.3439962
C      -4.4384815     -0.9778345      0.7994539
C      -2.7559897      0.4689260      1.5287727
C      -1.1275580     -1.1885650      2.4076298
C      -4.0582306      0.3925032      0.7653552
N      -2.3357437     -0.8133089      1.7152700
O      -2.1574926      1.4758509      1.8789011
O      -3.2238471     -2.9485702      1.5387117
H      -5.3888940     -1.4140331      0.5049285
H      -1.0383039     -0.6323935      3.3529012
H      -4.7522636      1.2260780      0.9031184
H      -0.2435492     -0.9851713      1.7875465
          85

O      -1.6310767      2.4592173     -0.8193309
C      -2.8114701      2.1809007     -0.8714135
O      -3.7814676      3.0917836     -0.7076539
C      -3.3931850      4.3889670     -0.2623535
C      -4.6357927      5.2444707     -0.1862977
C      -3.4071756      0.8404210     -1.0162956
N      -2.5729303     -0.2119135     -1.3108885
C      -3.1727576     -1.3421818     -1.5508874
C      -2.5146292     -2.6517200     -1.6113810
C      -3.2016556     -3.7157092     -2.2170407
C      -2.6413950     -4.9895898     -2.2736820
C      -1.3857802     -5.2238548     -1.7105492
C      -0.7037727     -4.1775238     -1.0857862
C      -1.2607468     -2.9026114     -1.0290397
H      -2.9135557      4.2801054      0.7225985
H      -2.6542457      4.8081953     -0.9620933
H      -5.1053702      5.3301477     -1.1757112
H      -4.3759659      6.2514908      0.1660038
H      -5.3630261      4.8069202      0.5109827
H      -1.0898963     -0.0154389     -0.7790871
H      -4.3987290      0.8572139     -1.4870141
H      -4.2331105     -1.3331250     -1.8397802
H      -4.1877976     -3.5347417     -2.6515314
H      -3.1870471     -5.8030644     -2.7548168
H      -0.9451292     -6.2216361     -1.7480288
H       0.2688413     -4.3558511     -0.6237492
H      -0.7321247     -2.1006817     -0.5124134
H       2.5222871      5.0393353      2.0363349
C       2.1731322      4.0194617      1.9083199
H       3.7141217      2.5948202      2.6721993
H      -0.5305791      5.1677355      1.6857840
C       2.7537864      2.8300898      2.2233404
H      -0.7074310      4.1860543      0.1840061
C      -0.0045494      4.7112569      0.8385581
N       0.9564975      3.7298868      1.3289121
H       6.6527926      0.9554589     -1.2646261
H       6.2654391      1.8730519     -3.5569148
C       5.6348357      1.0340747     -1.6502696
C       5.4166824      1.5538505     -2.9505086
N       1.8723960      1.8424538      1.8290390
H       0.5351039      5.4805331      0.2755863
C       0.7876766      2.4109878      1.2893116
C       4.5764830      0.6272487     -0.8708567
C       4.1356116      1.6514407     -3.4423821
H       2.1040316      0.5129224      4.0932311
H       4.7540321      0.2262209      0.1294767
H       3.9542084      2.0485178     -4.4438182
C       2.1285096      0.4338728      1.9250471
C       2.2362879     -0.1279586      3.2206365
C       3.2396625      0.7185843     -1.3533770
C       3.0212940      1.2377838     -2.6646369
H      -0.0981234      1.8860234      0.9125964
C       2.1189840      0.3026290     -0.5780805
C       1.6873461      1.3227657     -3.1583646
C       2.2742282     -0.3075458      0.7713544
C       2.4849573     -1.4686514      3.3527585
H       1.5251610      1.7204386     -4.1626637
H       2.5635090     -1.9200935      4.3431664
C       0.6198173      0.9233668     -2.3990501
C       0.8315266      0.4018402     -1.0883069
C       2.5277404     -1.7116085      0.9041026
C       2.6349399     -2.2921135      2.2025735
O      -0.1732091      0.0146624     -0.3110421
H      -0.4045958      1.0006377     -2.7648653
C       2.6799042     -2.5479691     -0.2370676
C       2.8897068     -3.6860700      2.3202661
H       2.5890036     -2.1075392     -1.2310655
H       2.9659220     -4.1220164      3.3182703
C       2.9356617     -3.8908267     -0.0904201
C       3.0394927     -4.4676988      1.2002957
H       3.0526224     -4.5204345     -0.9738727
H       3.2380220     -5.5356847      1.3006455
H      -1.1908324     -2.2637746      2.6146730
C      -3.3623284     -1.7501466      1.3451405
C      -4.4408871     -0.9763550      0.8040111
C      -2.7587608      0.4688787      1.5311231
C      -1.1263029     -1.1885686      2.4069579
C      -4.0674131      0.3886223      0.7833279
N      -2.3350685     -0.8145254      1.7147402
O      -2.1585322      1.4750692      1.8790582
O      -3.2236268     -2.9483567      1.5369587
H      -5.3907575     -1.4147690      0.5109530
H      -1.0375226     -0.6314049      3.3516461
H      -4.7579295      1.2273329      0.8994990
H      -0.2425957     -0.9853979      1.7865205
          85

O      -1.6287263      2.4609986     -0.8169557
C      -2.8092986      2.1810868     -0.8752300
O      -3.7808888      3.0917589     -0.7087064
C      -3.3931442      4.3881618     -0.2620394
C      -4.6358619      5.2437958     -0.1862104
C      -3.4004061      0.8451871     -1.0341218
N      -2.5735571     -0.2112332     -1.3124575
C      -3.1730839     -1.3427437     -1.5520785
C      -2.5146971     -2.6515829     -1.6113039
C      -3.2014283     -3.7160466     -2.2169393
C      -2.6412029     -4.9898818     -2.2734623
C      -1.3855533     -5.2243372     -1.7104627
C      -0.7036023     -4.1777217     -1.0860490
C      -1.2604499     -2.9027851     -1.0294419
H      -2.9138919      4.2795343      0.7231673
H      -2.6538194      4.8084331     -0.9608677
H      -5.1051422      5.3296231     -1.1757694
H      -4.3763540      6.2507984      0.1664257
H      -5.3634322      4.8060683      0.5106406
H      -1.0892696     -0.0144687     -0.7788996
H      -4.4003483      0.8562935     -1.4852883
H      -4.2330312     -1.3331841     -1.8424139
H      -4.1874762     -3.5351444     -2.6516927
H      -3.1869838     -5.8032849     -2.7546364
H      -0.9448714     -6.2221003     -1.7478340
H       0.2691487     -4.3559628     -0.6242008
H      -0.7313757     -2.1009290     -0.5131591
H       2.5221244      5.0393247      2.0362725
C       2.1729580      4.0194589      1.9082279
H       3.7138926      2.5947820      2.6721609
H      -0.5303952      5.1680361      1.6857111
C       2.7535800      2.8300792      2.2232690
H      -0.7078837      4.1857964      0.1842779
C      -0.0047324      4.7113030      0.8383896
N       0.9563455      3.7299272      1.3287850
H       6.6527436      0.9553768     -1.2646630
H       6.2653800      1.8729076     -3.5569726
C       5.6347869      1.0339755     -1.6503102
C       5.4166248      1.5537154     -2.9505586
N       1.8721649      1.8424574      1.8289397
H       0.5349473      5.4803966      0.2751839
C       0.7874675      2.4110517      1.2891040
C       4.5764290      0.6271685     -0.8708940
C       4.1355531      1.6512950     -3.4424438
H       2.1039398      0.5129528      4.0931719
H       4.7539660      0.2261711      0.1294541
H       3.9541582      2.0483579     -4.4438864
C       2.1283598      0.4339032      1.9249833
C       2.2361774     -0.1279369      3.2205787
C       3.2396242      0.7185052     -1.3534297
C       3.0212292      1.2376681     -2.6646915
H      -0.0983150      1.8865241      0.9116497
C       2.1189436      0.3025951     -0.5781141
C       1.6872558      1.3227224     -3.1583664
C       2.2741634     -0.3075559      0.7713226
C       2.4848952     -1.4686271      3.3527203
H       1.5250463      1.7204460     -4.1626392
H       2.5635063     -1.9200432      4.3431376
C       0.6197151      0.9234680     -2.3989899
C       0.8315296      0.4019004     -1.0883080
C       2.5276773     -1.7116182      0.9040742
C       2.6348850     -2.2921135      2.2025490
O      -0.1731462      0.0146192     -0.3109060
H      -0.4047226      1.0011570     -2.7646497
C       2.6798316     -2.5479803     -0.2370958
C       2.8896707     -3.6860677      2.3202445
H       2.5888811     -2.1075611     -1.2310923
H       2.9659179     -4.1220090      3.3182499
C       2.9356110     -3.8908278     -0.0904450
C       3.0394625     -4.4676928      1.2002714
H       3.0525449     -4.5204408     -0.9738920
H       3.2380163     -5.5356747      1.3006207
H      -1.1886867     -2.2635621      2.6152720
C      -3.3590643     -1.7502775      1.3463256
C      -4.4433724     -0.9748443      0.8087715
C      -2.7614614      0.4688412      1.5334539
C      -1.1250380     -1.1885594      2.4062884
C      -4.0764989      0.3848526      0.8013486
N      -2.3344058     -0.8157247      1.7142392
O      -2.1595490      1.4743061      1.8792592
O      -3.2233649     -2.9481731      1.5351294
H      -5.3924584     -1.4155220      0.5164508
H      -1.0366948     -0.6304066      3.3503860
H      -4.7631487      1.2284738      0.8956443
H      -0.2416764     -0.9855714      1.7854492
          85

O      -1.6262005      2.4628338     -0.8144034
C      -2.8069214      2.1812963     -0.8788727
O      -3.7801392      3.0917816     -0.7099070
C      -3.3931011      4.3874092     -0.2617775
C      -4.6360780      5.2429494     -0.1861066
C      -3.3936712      0.8499736     -1.0516865
N      -2.5740919     -0.2105960     -1.3138915
C      -3.1732090     -1.3432815     -1.5534738
C      -2.5146254     -2.6514387     -1.6113962
C      -3.2011319     -3.7163876     -2.2169350
C      -2.6410057     -4.9902027     -2.2732276
C      -1.3853304     -5.2248732     -1.7103351
C      -0.7033679     -4.1779613     -1.0863940
C      -1.2600060     -2.9029637     -1.0300114
H      -2.9142267      4.2789928      0.7236820
H      -2.6534480      4.8089072     -0.9596421
H      -5.1050248      5.3289903     -1.1758223
H      -4.3770972      6.2499271      0.1670349
H      -5.3639379      4.8047926      0.5102055
H      -1.0886603     -0.0135513     -0.7786783
H      -4.4015548      0.8556164     -1.4833733
H      -4.2328163     -1.3332434     -1.8450394
H      -4.1870780     -3.5355338     -2.6519592
H      -3.1869247     -5.8035733     -2.7543573
H      -0.9447315     -6.2226681     -1.7475323
H       0.2695002     -4.3558427     -0.6246235
H      -0.7304373     -2.1011671     -0.5141384
H       2.5218614      5.0393111      2.0361003
C       2.1726825      4.0194500      1.9080550
H       3.7135679      2.5947591      2.6720661
H      -0.5303119      5.1683352      1.6855241
C       2.7532743      2.8300722      2.2231432
H      -0.7083823      4.1855617      0.1844088
C      -0.0049880      4.7113487      0.8381229
N       0.9560908      3.7299503      1.3285877
H       6.6526593      0.9552429     -1.2647069
H       6.2652980      1.8726848     -3.5570485
C       5.6347050      1.0338217     -1.6503636
C       5.4165399      1.5535102     -2.9506287
N       1.8718340      1.8424538      1.8288124
H       0.5347607      5.4802603      0.2747232
C       0.7871551      2.4110974      1.2888573
C       4.5763368      0.6270467     -0.8709469
C       4.1354713      1.6510763     -3.4425383
H       2.1037978      0.5129835      4.0930925
H       4.7538505      0.2260919      0.1294226
H       3.9540960      2.0481144     -4.4439937
C       2.1281390      0.4339318      1.9248987
C       2.2360164     -0.1279145      3.2205005
C       3.2395547      0.7183919     -1.3535083
C       3.0211328      1.2375000     -2.6647792
H      -0.0986000      1.8870102      0.9106496
C       2.1188744      0.3025540     -0.5781661
C       1.6871303      1.3226457     -3.1583918
C       2.2740522     -0.3075682      0.7712741
C       2.4848040     -1.4685979      3.3526646
H       1.5248956      1.7204103     -4.1626421
H       2.5634943     -1.9199826      4.3430916
C       0.6195746      0.9235707     -2.3989367
C       0.8315070      0.4019656     -1.0883169
C       2.5275723     -1.7116286      0.9040313
C       2.6347964     -2.2921137      2.2025088
O      -0.1730808      0.0145708     -0.3107481
H      -0.4048889      1.0016954     -2.7644354
C       2.6797114     -2.5479885     -0.2371408
C       2.8896143     -3.6860615      2.3202079
H       2.5886978     -2.1075840     -1.2311372
H       2.9659047     -4.1219996      3.3182122
C       2.9355209     -3.8908305     -0.0904863
C       3.0394129     -4.4676830      1.2002307
H       3.0524336     -4.5204437     -0.9739375
H       3.2380027     -5.5356588      1.3005765
H      -1.1864626     -2.2633176      2.6157920
C      -3.3558283     -1.7504030      1.3475410
C      -4.4460064     -0.9733101      0.8139782
C      -2.7641154      0.4688316      1.5358798
C      -1.1237176     -1.1885111      2.4055824
C      -4.0855045      0.3813042      0.8194335
N      -2.3337348     -0.8168805      1.7137600
O      -2.1605492      1.4735711      1.8795512
O      -3.2229674     -2.9480370      1.5330801
H      -5.3940704     -1.4163040      0.5216922
H      -1.0357834     -0.6293862      3.3490955
H      -4.7680258      1.2294982      0.8920142
H      -0.2407543     -0.9856513      1.7842893
          85

O      -1.6230501      2.4649962     -0.8113330
C      -2.8038460      2.1816327     -0.8819740
O      -3.7788194      3.0919171     -0.7115846
C      -3.3930902      4.3868119     -0.2616485
C      -4.6367795      5.2415826     -0.1859669
C      -3.3867441      0.8546979     -1.0678027
N      -2.5742568     -0.2101055     -1.3147509
C      -3.1728793     -1.3436782     -1.5552381
C      -2.5142541     -2.6512571     -1.6120386
C      -3.2006156     -3.7167700     -2.2172758
C      -2.6407210     -4.9906633     -2.2729423
C      -1.3850894     -5.2255448     -1.7100126
C      -0.7029465     -4.1782272     -1.0868990
C      -1.2592548     -2.9031014     -1.0311444
H      -2.9146297      4.2785284      0.7240778
H      -2.6532619      4.8101018     -0.9583704
H      -5.1052549      5.3280931     -1.1758772
H      -4.3789260      6.2484825      0.1682462
H      -5.3648203      4.8022476      0.5094393
H      -1.0881659     -0.0129294     -0.7783292
H      -4.4017489      0.8554927     -1.4809031
H      -4.2322798     -1.3330327     -1.8476081
H      -4.1864524     -3.5360161     -2.6526128
H      -3.1868863     -5.8040695     -2.7537916
H      -0.9446861     -6.2234356     -1.7466424
H       0.2700446     -4.3561063     -0.6253257
H      -0.7291322     -2.1012970     -0.5158560
H       2.5212745      5.0392907      2.0355555
C       2.1720869      4.0194200      1.9076198
H       3.7129717      2.5948026      2.6717625
H      -0.5306899      5.1684927      1.6849346
C       2.7526732      2.8300810      2.2228349
H      -0.7089446      4.1853697      0.1839928
C      -0.0054976      4.7113427      0.8375423
N       0.9554996      3.7298984      1.3281970
H       6.6524446      0.9549418     -1.2647431
H       6.2651458      1.8722488     -3.5571425
C       5.6345024      1.0335007     -1.6504350
C       5.4163661      1.5531071     -2.9507349
N       1.8712027      1.8424229      1.8286242
H       0.5344538      5.4801267      0.2741731
C       0.7865180      2.4110604      1.2885317
C       4.5761003      0.6267985     -0.8710383
C       4.1353173      1.6506459     -3.4427193
H       2.1035389      0.5130067      4.0929587
H       4.7535423      0.2259168      0.1293727
H       3.9540039      2.0476329     -4.4442059
C       2.1277057      0.4339441      1.9247599
C       2.2357243     -0.1279007      3.2203662
C       3.2393636      0.7181771     -1.3536654
C       3.0209337      1.2371656     -2.6649755
H      -0.0991780      1.8873699      0.9095881
C       2.1186902      0.3024941     -0.5782857
C       1.6869032      1.3224497     -3.1585268
C       2.2737686     -0.3075944      0.7711714
C       2.4846437     -1.4685677      3.3525590
H       1.5246611      1.7202184     -4.1627726
H       2.5634853     -1.9199023      4.3429991
C       0.6193103      0.9236942     -2.3989397
C       0.8313738      0.4020511     -1.0883729
C       2.5273134     -1.7116502      0.9039428
C       2.6346000     -2.2921214      2.2024217
O      -0.1730056      0.0145230     -0.3105460
H      -0.4051742      1.0023248     -2.7642760
C       2.6794541     -2.5480116     -0.2372268
C       2.8894904     -3.6860595      2.3201229
H       2.5883433     -2.1076284     -1.2312225
H       2.9658497     -4.1219861      3.3181284
C       2.9353495     -3.8908299     -0.0905715
C       3.0393141     -4.4676721      1.2001425
H       3.0522274     -4.5204480     -0.9740184
H       3.2379765     -5.5356355      1.3004835
H      -1.1840633     -2.2629578      2.6161329
C      -3.3526912     -1.7504548      1.3488307
C      -4.4490545     -0.9716595      0.8204582
C      -2.7666630      0.4689147      1.5386343
C      -1.1222712     -1.1883225      2.4048132
C      -4.0943303      0.3782075      0.8376948
N      -2.3329585     -0.8178783      1.7132521
O      -2.1614598      1.4729946      1.8800035
O      -3.2221127     -2.9479650      1.5303136
H      -5.3959505     -1.4168925      0.5275907
H      -1.0347921     -0.6282952      3.3477854
H      -4.7724815      1.2305799      0.8894757
H      -0.2397219     -0.9854857      1.7830986
          85

O      -1.6181803      2.4693237     -0.8080993
C      -2.7983834      2.1825408     -0.8827164
O      -3.7760716      3.0921960     -0.7144694
C      -3.3933864      4.3866274     -0.2620036
C      -4.6386911      5.2392251     -0.1856542
C      -3.3785832      0.8585563     -1.0761405
N      -2.5729401     -0.2103583     -1.3123205
C      -3.1714330     -1.3435871     -1.5573684
C      -2.5133907     -2.6511188     -1.6146522
C      -3.1995816     -3.7176447     -2.2189896
C      -2.6400877     -4.9918860     -2.2724801
C      -1.3846665     -5.2267928     -1.7090015
C      -0.7022946     -4.1784801     -1.0878200
C      -1.2581323     -2.9031340     -1.0340520
H      -2.9154274      4.2782786      0.7240278
H      -2.6537328      4.8131172     -0.9570979
H      -5.1062934      5.3276149     -1.1758509
H      -4.3830448      6.2456670      0.1715723
H      -5.3668546      4.7968290      0.5077295
H      -1.0885064     -0.0136150     -0.7776698
H      -4.3983656      0.8564704     -1.4754859
H      -4.2306636     -1.3311940     -1.8503529
H      -4.1853301     -3.5374936     -2.6548076
H      -3.1866551     -5.8057562     -2.7521455
H      -0.9448298     -6.2249965     -1.7437696
H       0.2706008     -4.3554282     -0.6256775
H      -0.7275725     -2.1010732     -0.5195944
H       2.5198040      5.0392796      2.0337916
C       2.1706662      4.0193243      1.9063964
H       3.7118724      2.5951729      2.6707436
H      -0.5316306      5.1688645      1.6835412
C       2.7514292      2.8301944      2.2219988
H      -0.7100621      4.1845307      0.1828113
C      -0.0068413      4.7109723      0.8362735
N       0.9539250      3.7295297      1.3274889
H       6.6517531      0.9541439     -1.2646489
H       6.2648169      1.8714205     -3.5571142
C       5.6338679      1.0327622     -1.6504832
C       5.4159411      1.5523146     -2.9508193
N       1.8698404      1.8422964      1.8285128
H       0.5335575      5.4792352      0.2725753
C       0.7850091      2.4106975      1.2882828
C       4.5753198      0.6262359     -0.8711973
C       4.1349523      1.6497986     -3.4430222
H       2.1032069      0.5129174      4.0928072
H       4.7525647      0.2254526      0.1292889
H       3.9538137      2.0467027     -4.4445785
C       2.1267602      0.4338858      1.9245945
C       2.2352330     -0.1280004      3.2201932
C       3.2386990      0.7177494     -1.3539786
C       3.0204530      1.2364530     -2.6654338
H      -0.1004212      1.8871849      0.9085267
C       2.1179715      0.3024146     -0.5786290
C       1.6864716      1.3218666     -3.1591597
C       2.2728200     -0.3076342      0.7709491
C       2.4844069     -1.4686269      3.3524222
H       1.5244616      1.7195514     -4.1634844
H       2.5636234     -1.9198978      4.3428648
C       0.6187546      0.9238735     -2.3994576
C       0.8307692      0.4022068     -1.0888072
C       2.5265899     -1.7116890      0.9038034
C       2.6341677     -2.2921911      2.2022619
O      -0.1730439      0.0144954     -0.3105636
H      -0.4057330      1.0033443     -2.7645661
C       2.6788698     -2.5480555     -0.2373467
C       2.8892326     -3.6861119      2.3199370
H       2.5876304     -2.1076653     -1.2313284
H       2.9657515     -4.1220211      3.3179403
C       2.9350339     -3.8908389     -0.0907356
C       3.0390689     -4.4677206      1.1999518
H       3.0520442     -4.5203874     -0.9742194
H       3.2378651     -5.5356630      1.3002682
H      -1.1820558     -2.2621287      2.6167120
C      -3.3499323     -1.7502610      1.3496298
C      -4.4526914     -0.9700026      0.8291344
C      -2.7686586      0.4693191      1.5416198
C      -1.1210543     -1.1875741      2.4047405
C      -4.1022298      0.3760876      0.8559248
N      -2.3314413     -0.8183507      1.7115910
O      -2.1619179      1.4732900      1.8795127
O      -3.2206367     -2.9479533      1.5258783
H      -5.3986103     -1.4169760      0.5356069
H      -1.0357724     -0.6268921      3.3475363
H      -4.7765628      1.2317514      0.8911424
H      -0.2378989     -0.9844146      1.7841192
          85

O      -1.6138907      2.4745991     -0.8083363
C      -2.7933323      2.1838416     -0.8798692
O      -3.7752313      3.0911005     -0.7186875
C      -3.3949271      4.3847755     -0.2631054
C      -4.6394151      5.2379307     -0.1850944
C      -3.3712165      0.8596206     -1.0618059
N      -2.5703421     -0.2100649     -1.3124752
C      -3.1702524     -1.3426626     -1.5605916
C      -2.5129883     -2.6516518     -1.6186388
C      -3.1991528     -3.7198791     -2.2204677
C      -2.6392315     -4.9942672     -2.2717112
C      -1.3835027     -5.2281890     -1.7084875
C      -0.7019747     -4.1790417     -1.0880172
C      -1.2582636     -2.9037452     -1.0363169
H      -2.9179425      4.2740610      0.7231863
H      -2.6542767      4.8133315     -0.9557898
H      -5.1065753      5.3300778     -1.1751230
H      -4.3822618      6.2428772      0.1752709
H      -5.3683495      4.7947689      0.5070016
H      -1.0898057     -0.0155439     -0.7810411
H      -4.3931522      0.8587224     -1.4569466
H      -4.2302367     -1.3288962     -1.8510794
H      -4.1850099     -3.5410838     -2.6566346
H      -3.1858015     -5.8089952     -2.7499225
H      -0.9432215     -6.2262350     -1.7422318
H       0.2706477     -4.3551589     -0.6249720
H      -0.7280506     -2.1012315     -0.5221146
H       2.5186799      5.0393999      2.0321503
C       2.1695837      4.0193559      1.9053533
H       3.7112150      2.5958484      2.6700085
H      -0.5315994      5.1699732      1.6825066
C       2.7505887      2.8304516      2.2214315
H      -0.7125829      4.1831077      0.1837280
C      -0.0083155      4.7102598      0.8352994
N       0.9526847      3.7291910      1.3269248
H       6.6510646      0.9535991     -1.2647047
H       6.2644664      1.8710707     -3.5571677
C       5.6332223      1.0322931     -1.6506446
C       5.4155360      1.5519248     -2.9509727
N       1.8689688      1.8422206      1.8287832
H       0.5317048      5.4773074      0.2695930
C       0.7838731      2.4103197      1.2887284
C       4.5746143      0.6258010     -0.8713469
C       4.1345701      1.6493296     -3.4431844
H       2.1030685      0.5126733      4.0929866
H       4.7519510      0.2250512      0.1291402
H       3.9533386      2.0462086     -4.4447340
C       2.1260797      0.4337698      1.9247407
C       2.2349521     -0.1281912      3.2203093
C       3.2379393      0.7173503     -1.3540263
C       3.0201201      1.2359320     -2.6656303
H      -0.1018017      1.8865662      0.9098845
C       2.1169431      0.3022831     -0.5787509
C       1.6863836      1.3214902     -3.1598254
C       2.2718142     -0.3077503      0.7709625
C       2.4843049     -1.4688062      3.3524414
H       1.5247637      1.7191428     -4.1642240
H       2.5637674     -1.9200760      4.3428660
C       0.6184923      0.9238560     -2.4003198
C       0.8298446      0.4022463     -1.0894480
C       2.5261482     -1.7117877      0.9038092
C       2.6340020     -2.2923539      2.2022345
O      -0.1745975      0.0149353     -0.3122212
H      -0.4058548      1.0036767     -2.7657537
C       2.6786593     -2.5481247     -0.2373582
C       2.8891234     -3.6862992      2.3198327
H       2.5874369     -2.1076865     -1.2313207
H       2.9657308     -4.1222383      3.3178184
C       2.9348352     -3.8909254     -0.0908316
C       3.0388215     -4.4679022      1.1998172
H       3.0518614     -4.5204070     -0.9743615
H       3.2375411     -5.5358648      1.3000839
H      -1.1839940     -2.2601546      2.6183210
C      -3.3487435     -1.7511136      1.3462923
C      -4.4515047     -0.9692286      0.8306444
C      -2.7686175      0.4693993      1.5430065
C      -1.1237130     -1.1856832      2.4056933
C      -4.1023040      0.3759607      0.8716019
N      -2.3303148     -0.8183154      1.7070831
O      -2.1649609      1.4771038      1.8743700
O      -3.2228697     -2.9489067      1.5234453
H      -5.3969925     -1.4145650      0.5334163
H      -1.0440519     -0.6240319      3.3484911
H      -4.7754191      1.2323156      0.9008948
H      -0.2376865     -0.9817715      1.7895250
          85

O      -1.6163433      2.4725752     -0.8121755
C      -2.7958586      2.1826095     -0.8865214
O      -3.7776720      3.0897166     -0.7228514
C      -3.3961679      4.3821148     -0.2645969
C      -4.6396589      5.2365696     -0.1850583
C      -3.3726686      0.8589995     -1.0735451
N      -2.5710294     -0.2104745     -1.3201594
C      -3.1706099     -1.3441121     -1.5652534
C      -2.5131312     -2.6529655     -1.6200884
C      -3.1992387     -3.7216920     -2.2210064
C      -2.6390634     -4.9959049     -2.2719352
C      -1.3832463     -5.2292747     -1.7087057
C      -0.7020890     -4.1798139     -1.0882971
C      -1.2585247     -2.9045312     -1.0372141
H      -2.9192613      4.2689421      0.7214548
H      -2.6550563      4.8112320     -0.9564482
H      -5.1071254      5.3303523     -1.1747938
H      -4.3812012      6.2408372      0.1762755
H      -5.3688487      4.7935301      0.5068485
H      -1.0898140     -0.0148931     -0.7833366
H      -4.3948706      0.8569382     -1.4678531
H      -4.2300635     -1.3312841     -1.8576545
H      -4.1850562     -3.5431411     -2.6573627
H      -3.1853913     -5.8108787     -2.7500118
H      -0.9425822     -6.2271533     -1.7423515
H       0.2705403     -4.3557890     -0.6251874
H      -0.7283760     -2.1016015     -0.5235795
H       2.5182707      5.0394063      2.0315658
C       2.1691789      4.0193369      1.9049485
H       3.7108628      2.5959833      2.6698153
H      -0.5321354      5.1697728      1.6818257
C       2.7502155      2.8304791      2.2212214
H      -0.7134456      4.1819813      0.1836623
C      -0.0090239      4.7096895      0.8347182
N       0.9522787      3.7290211      1.3265926
H       6.6508681      0.9534767     -1.2648432
H       6.2642721      1.8709970     -3.5572974
C       5.6330259      1.0321638     -1.6507851
C       5.4153574      1.5518181     -2.9510983
N       1.8686221      1.8421412      1.8287657
H       0.5306511      5.4764950      0.2683559
C       0.7834741      2.4101435      1.2886757
C       4.5744263      0.6256251     -0.8714475
C       4.1343775      1.6491792     -3.4432530
H       2.1029811      0.5125388      4.0930566
H       4.7518679      0.2248806      0.1290257
H       3.9530550      2.0460502     -4.4447878
C       2.1258114      0.4336764      1.9247836
C       2.2348139     -0.1282928      3.2203481
C       3.2376946      0.7171480     -1.3540370
C       3.0199859      1.2357116     -2.6656663
H      -0.1023034      1.8863845      0.9099022
C       2.1165323      0.3021543     -0.5787417
C       1.6863342      1.3211744     -3.1600554
C       2.2715103     -0.3078512      0.7709935
C       2.4842561     -1.4689060      3.3524285
H       1.5248286      1.7187195     -4.1645119
H       2.5637738     -1.9201743      4.3428496
C       0.6184069      0.9235190     -2.4006921
C       0.8295182      0.4021483     -1.0897169
C       2.5260857     -1.7118666      0.9038081
C       2.6339875     -2.2924547      2.2022190
O      -0.1756790      0.0151375     -0.3130682
H      -0.4059141      1.0031622     -2.7662109
C       2.6786455     -2.5481835     -0.2373738
C       2.8890761     -3.6864199      2.3197798
H       2.5874245     -2.1077405     -1.2313330
H       2.9656640     -4.1223859      3.3177556
C       2.9347609     -3.8909979     -0.0908837
C       3.0387138     -4.4680168      1.1997482
H       3.0517398     -4.5204589     -0.9744306
H       3.2373564     -5.5359959      1.2999931
H      -1.1885462     -2.2589760      2.6170130
C      -3.3511426     -1.7523052      1.3408760
C      -4.4528877     -0.9715955      0.8201250
C      -2.7737463      0.4687610      1.5370196
C      -1.1288998     -1.1845679      2.4039249
C      -4.1060105      0.3737267      0.8627793
N      -2.3347188     -0.8186363      1.7033382
O      -2.1715696      1.4768397      1.8697888
O      -3.2255712     -2.9496583      1.5205657
H      -5.3973829     -1.4180731      0.5214487
H      -1.0510979     -0.6224116      3.3465588
H      -4.7798563      1.2295314      0.8894097
H      -0.2421574     -0.9801878      1.7888911
          85

O      -1.6191487      2.4697686     -0.8158374
C      -2.7988357      2.1815420     -0.8936360
O      -3.7804962      3.0883532     -0.7265390
C      -3.3972956      4.3796013     -0.2660610
C      -4.6398185      5.2352858     -0.1850460
C      -3.3739659      0.8588754     -1.0850200
N      -2.5719509     -0.2107624     -1.3283999
C      -3.1711517     -1.3457087     -1.5696095
C      -2.5132193     -2.6543912     -1.6210676
C      -3.1993987     -3.7233003     -2.2213201
C      -2.6389643     -4.9972649     -2.2722700
C      -1.3830987     -5.2301863     -1.7090128
C      -0.7021756     -4.1806123     -1.0885575
C      -1.2586142     -2.9053235     -1.0378730
H      -2.9202932      4.2641025      0.7196711
H      -2.6557151      4.8088525     -0.9573192
H      -5.1076516      5.3302848     -1.1744887
H      -4.3803387      6.2390039      0.1770792
H      -5.3690680      4.7922803      0.5068228
H      -1.0896539     -0.0139347     -0.7855425
H      -4.3957564      0.8559470     -1.4811024
H      -4.2300059     -1.3343008     -1.8642901
H      -4.1851130     -3.5446905     -2.6578766
H      -3.1849482     -5.8123833     -2.7504874
H      -0.9421194     -6.2279181     -1.7427704
H       0.2704741     -4.3562885     -0.6253798
H      -0.7284127     -2.1019827     -0.5249199
H       2.5179233      5.0394276      2.0310909
C       2.1688296      4.0193405      1.9046133
H       3.7105405      2.5961262      2.6697020
H      -0.5325750      5.1695762      1.6812770
C       2.7498889      2.8305166      2.2210557
H      -0.7142559      4.1810810      0.1836619
C      -0.0096202      4.7092388      0.8342164
N       0.9519675      3.7289092      1.3262428
H       6.6507340      0.9534463     -1.2650429
H       6.2640627      1.8709219     -3.5575064
C       5.6328799      1.0320764     -1.6509645
C       5.4151817      1.5517188     -2.9512740
N       1.8683546      1.8420880      1.8287289
H       0.5297198      5.4759181      0.2673718
C       0.7831682      2.4100265      1.2886073
C       4.5743234      0.6254443     -0.8715703
C       4.1341777      1.6490559     -3.4433287
H       2.1029167      0.5124073      4.0931761
H       4.7518935      0.2247292      0.1288939
H       3.9527311      2.0459379     -4.4448338
C       2.1256071      0.4336120      1.9248604
C       2.2347129     -0.1283654      3.2204194
C       3.2375200      0.7169254     -1.3540468
C       3.0198660      1.2354949     -2.6656842
H      -0.1028343      1.8862961      0.9101548
C       2.1162126      0.3020501     -0.5786818
C       1.6862946      1.3208672     -3.1602393
C       2.2713075     -0.3079309      0.7710709
C       2.4842123     -1.4689907      3.3524063
H       1.5248763      1.7183424     -4.1647331
H       2.5637376     -1.9202640      4.3428243
C       0.6183421      0.9231354     -2.4009966
C       0.8292766      0.4020556     -1.0899107
C       2.5260885     -1.7119381      0.9038179
C       2.6340010     -2.2925666      2.2022029
O      -0.1766773      0.0153564     -0.3137489
H      -0.4059627      1.0025574     -2.7665903
C       2.6786556     -2.5482472     -0.2373798
C       2.8890201     -3.6865694      2.3197112
H       2.5874625     -2.1078049     -1.2313416
H       2.9655417     -4.1225796      3.3176724
C       2.9346694     -3.8910970     -0.0909415
C       3.0386231     -4.4681673      1.1996661
H       3.0515619     -4.5205211     -0.9745293
H       3.2371575     -5.5361686      1.2998888
H      -1.1933841     -2.2578041      2.6152413
C      -3.3533610     -1.7534816      1.3355391
C      -4.4535366     -0.9738012      0.8095808
C      -2.7786461      0.4679256      1.5306637
C      -1.1345144     -1.1834442      2.4018138
C      -4.1083286      0.3716337      0.8546502
N      -2.3397253     -0.8189173      1.6999881
O      -2.1784166      1.4761977      1.8654643
O      -3.2280521     -2.9503138      1.5180814
H      -5.3971079     -1.4211423      0.5092514
H      -1.0579025     -0.6208198      3.3442620
H      -4.7826422      1.2269822      0.8760634
H      -0.2474236     -0.9785431      1.7874189
          85

O      -1.6224357      2.4668911     -0.8189490
C      -2.8025098      2.1799586     -0.9000111
O      -3.7820780      3.0878139     -0.7284688
C      -3.3975939      4.3783989     -0.2667916
C      -4.6399900      5.2344873     -0.1852445
C      -3.3781534      0.8576875     -1.1018950
N      -2.5733923     -0.2115857     -1.3331282
C      -3.1716245     -1.3472305     -1.5720922
C      -2.5134728     -2.6551302     -1.6210585
C      -3.1995309     -3.7239314     -2.2215141
C      -2.6391219     -4.9977759     -2.2727022
C      -1.3833565     -5.2306476     -1.7091954
C      -0.7024096     -4.1809539     -1.0887970
C      -1.2587727     -2.9056375     -1.0381416
H      -2.9204259      4.2619401      0.7187161
H      -2.6562259      4.8077849     -0.9582384
H      -5.1080311      5.3296266     -1.1745903
H      -4.3803153      6.2381852      0.1767766
H      -5.3692399      4.7915134      0.5066338
H      -1.0893428     -0.0130925     -0.7856387
H      -4.4001717      0.8530989     -1.4968194
H      -4.2296716     -1.3365628     -1.8694540
H      -4.1852180     -3.5452058     -2.6580735
H      -3.1850068     -5.8128493     -2.7511151
H      -0.9423526     -6.2283669     -1.7429318
H       0.2703084     -4.3566128     -0.6257527
H      -0.7285173     -2.1021330     -0.5255424
H       2.5178932      5.0393829      2.0309975
C       2.1687942      4.0192915      1.9045543
H       3.7104427      2.5960016      2.6696677
H      -0.5329714      5.1691598      1.6811399
C       2.7498067      2.8304417      2.2210121
H      -0.7145286      4.1808806      0.1836699
C      -0.0097300      4.7090352      0.8341523
N       0.9519447      3.7288149      1.3261899
H       6.6507329      0.9534811     -1.2650321
H       6.2640298      1.8709378     -3.5575070
C       5.6328792      1.0320932     -1.6509530
C       5.4151577      1.5517291     -2.9512670
N       1.8682947      1.8420280      1.8286210
H       0.5294523      5.4757817      0.2672489
C       0.7831420      2.4099195      1.2884184
C       4.5743327      0.6254373     -0.8715645
C       4.1341631      1.6490747     -3.4433208
H       2.1028843      0.5123857      4.0931339
H       4.7519121      0.2247111      0.1288919
H       3.9527207      2.0459606     -4.4448211
C       2.1255532      0.4335580      1.9248201
C       2.2346681     -0.1283944      3.2203836
C       3.2375266      0.7169028     -1.3540616
C       3.0198369      1.2354955     -2.6656758
H      -0.1027805      1.8861204      0.9097173
C       2.1161925      0.3020135     -0.5786824
C       1.6862684      1.3207697     -3.1602608
C       2.2713193     -0.3079643      0.7710533
C       2.4841917     -1.4690152      3.3523813
H       1.5248136      1.7181263     -4.1647897
H       2.5637120     -1.9202824      4.3428020
C       0.6182912      0.9227999     -2.4010881
C       0.8292912      0.4019264     -1.0899895
C       2.5261162     -1.7119559      0.9037992
C       2.6340048     -2.2925819      2.2021882
O      -0.1768680      0.0153042     -0.3137850
H      -0.4059963      1.0018155     -2.7668322
C       2.6786678     -2.5482617     -0.2373914
C       2.8890182     -3.6865819      2.3197015
H       2.5874422     -2.1078579     -1.2313666
H       2.9655209     -4.1225870      3.3176650
C       2.9346720     -3.8911092     -0.0909472
C       3.0386296     -4.4681784      1.1996574
H       3.0515464     -4.5205305     -0.9745375
H       3.2371709     -5.5361778      1.2998767
H      -1.1958290     -2.2578196      2.6138357
C      -3.3558801     -1.7538854      1.3329369
C      -4.4564029     -0.9761811      0.8015525
C      -2.7830145      0.4675856      1.5255565
C      -1.1368924     -1.1834740      2.4003399
C      -4.1131611      0.3696559      0.8400686
N      -2.3431156     -0.8191572      1.6986322
O      -2.1818659      1.4743360      1.8640576
O      -3.2290197     -2.9504004      1.5160840
H      -5.3992511     -1.4258849      0.5023470
H      -1.0598396     -0.6209317      3.3427210
H      -4.7885583      1.2242627      0.8632856
H      -0.2501580     -0.9786387      1.7853300
          85

O      -1.6257435      2.4640253     -0.8218933
C      -2.8059866      2.1784420     -0.9064505
O      -3.7839795      3.0870870     -0.7308680
C      -3.3981451      4.3769887     -0.2678476
C      -4.6403584      5.2334273     -0.1852856
C      -3.3816815      0.8568166     -1.1175763
N      -2.5746359     -0.2123439     -1.3387059
C      -3.1719164     -1.3488556     -1.5748986
C      -2.5136299     -2.6560402     -1.6213061
C      -3.1997335     -3.7247401     -2.2216462
C      -2.6391359     -4.9983384     -2.2731843
C      -1.3834831     -5.2312831     -1.7094485
C      -0.7025609     -4.1815298     -1.0890420
C      -1.2587620     -2.9060888     -1.0388225
H      -2.9204575      4.2593225      0.7172263
H      -2.6570875      4.8066962     -0.9594553
H      -5.1086331      5.3290769     -1.1744615
H      -4.3805148      6.2369795      0.1770438
H      -5.3695549      4.7902177      0.5064200
H      -1.0891748     -0.0120947     -0.7862202
H      -4.4024347      0.8510492     -1.5145376
H      -4.2291871     -1.3392775     -1.8750210
H      -4.1854423     -3.5458307     -2.6580556
H      -3.1847415     -5.8133129     -2.7520949
H      -0.9422503     -6.2289250     -1.7437951
H       0.2701459     -4.3570796     -0.6259944
H      -0.7284219     -2.1023790     -0.5266443
H       2.5176580      5.0395210      2.0303414
C       2.1685716      4.0193406      1.9043219
H       3.7101670      2.5960451      2.6695389
H      -0.5334501      5.1687658      1.6806437
C       2.7495152      2.8304855      2.2208652
H      -0.7147747      4.1805736      0.1831891
C      -0.0100328      4.7088006      0.8337500
N       0.9517563      3.7287276      1.3259699
H       6.6507305      0.9536058     -1.2653075
H       6.2638792      1.8707190     -3.5577624
C       5.6328220      1.0321067     -1.6511392
C       5.4150329      1.5516038     -2.9514994
N       1.8680873      1.8420170      1.8285739
H       0.5290795      5.4756185      0.2669624
C       0.7830388      2.4098271      1.2881523
C       4.5743439      0.6252090     -0.8717229
C       4.1339602      1.6489783     -3.4433603
H       2.1028857      0.5121923      4.0933872
H       4.7519443      0.2247196      0.1288379
H       3.9522326      2.0460017     -4.4447427
C       2.1253972      0.4336464      1.9249241
C       2.2346500     -0.1283860      3.2204734
C       3.2374529      0.7166357     -1.3540669
C       3.0197301      1.2352912     -2.6656479
H      -0.1028152      1.8860511      0.9093021
C       2.1160017      0.3020109     -0.5785538
C       1.6862367      1.3204650     -3.1604732
C       2.2712566     -0.3079227      0.7712111
C       2.4841691     -1.4690612      3.3523210
H       1.5249164      1.7180574     -4.1649457
H       2.5634306     -1.9204659      4.3426736
C       0.6182565      0.9225386     -2.4013266
C       0.8291988      0.4019219     -1.0901181
C       2.5261396     -1.7119887      0.9038531
C       2.6340734     -2.2927152      2.2021692
O      -0.1772880      0.0154525     -0.3140391
H      -0.4060720      1.0014371     -2.7670704
C       2.6786875     -2.5483323     -0.2373480
C       2.8889306     -3.6867876      2.3195773
H       2.5877085     -2.1078526     -1.2312952
H       2.9651962     -4.1229509      3.3174700
C       2.9345634     -3.8912482     -0.0910001
C       3.0386543     -4.4683964      1.1995646
H       3.0510053     -4.5207123     -0.9746715
H       3.2368063     -5.5364595      1.2998356
H      -1.1988907     -2.2577433      2.6124470
C      -3.3583872     -1.7543474      1.3297347
C      -4.4586248     -0.9786846      0.7926954
C      -2.7877114      0.4671353      1.5199103
C      -1.1401274     -1.1834411      2.3989020
C      -4.1170070      0.3676766      0.8263428
N      -2.3470078     -0.8193567      1.6967125
O      -2.1862781      1.4725937      1.8621074
O      -3.2300348     -2.9504921      1.5137944
H      -5.4008039     -1.4304131      0.4942991
H      -1.0630253     -0.6208653      3.3412453
H      -4.7938409      1.2213310      0.8492888
H      -0.2535013     -0.9784807      1.7837301
          85

O      -1.6290262      2.4609195     -0.8254879
C      -2.8095339      2.1769682     -0.9134360
O      -3.7858904      3.0863221     -0.7333323
C      -3.3985731      4.3752891     -0.2686037
C      -4.6403295      5.2326018     -0.1855859
C      -3.3852334      0.8559142     -1.1333280
N      -2.5762201     -0.2130678     -1.3442187
C      -3.1726206     -1.3504091     -1.5781374
C      -2.5139048     -2.6570235     -1.6216449
C      -3.1997672     -3.7257074     -2.2221415
C      -2.6393478     -4.9992837     -2.2734494
C      -1.3837175     -5.2317797     -1.7095305
C      -0.7028305     -4.1817942     -1.0893254
C      -1.2591224     -2.9064708     -1.0389032
H      -2.9211796      4.2561935      0.7164244
H      -2.6571547      4.8050275     -0.9598367
H      -5.1087960      5.3285084     -1.1746751
H      -4.3799334      6.2360067      0.1767050
H      -5.3696516      4.7896852      0.5062457
H      -1.0887979     -0.0110724     -0.7865469
H      -4.4062000      0.8485367     -1.5300258
H      -4.2289417     -1.3416760     -1.8813869
H      -4.1853135     -3.5467435     -2.6588922
H      -3.1849648     -5.8144088     -2.7520902
H      -0.9424756     -6.2293929     -1.7431176
H       0.2700375     -4.3575337     -0.6266088
H      -0.7288566     -2.1024606     -0.5271702
H       2.5176676      5.0392539      2.0307151
C       2.1685709      4.0191506      1.9043383
H       3.7101346      2.5957940      2.6695798
H      -0.5339169      5.1682641      1.6805246
C       2.7495328      2.8302786      2.2208687
H      -0.7147809      4.1798342      0.1830942
C      -0.0101783      4.7084030      0.8337096
N       0.9517561      3.7285769      1.3259715
H       6.6506666      0.9534489     -1.2650111
H       6.2639580      1.8709188     -3.5574864
C       5.6328177      1.0320643     -1.6509385
C       5.4150868      1.5517045     -2.9512479
N       1.8680630      1.8418626      1.8284115
H       0.5287222      5.4753005      0.2667440
C       0.7829671      2.4096876      1.2880282
C       4.5742512      0.6253850     -0.8715703
C       4.1341019      1.6490437     -3.4433246
H       2.1027610      0.5123356      4.0930364
H       4.7518350      0.2246348      0.1288758
H       3.9526784      2.0459165     -4.4448303
C       2.1253657      0.4334239      1.9247247
C       2.2345350     -0.1284662      3.2203047
C       3.2374426      0.7168346     -1.3541033
C       3.0197483      1.2354426     -2.6656933
H      -0.1028114      1.8859168      0.9086829
C       2.1159962      0.3018877     -0.5787301
C       1.6861886      1.3204864     -3.1603778
C       2.2712079     -0.3080679      0.7709897
C       2.4841462     -1.4690673      3.3523305
H       1.5247374      1.7176660     -4.1649731
H       2.5636928     -1.9203135      4.3427579
C       0.6181865      0.9222431     -2.4013713
C       0.8291990      0.4017053     -1.0902382
C       2.5260977     -1.7120126      0.9037537
C       2.6339976     -2.2926183      2.2021512
O      -0.1775509      0.0152350     -0.3141251
H      -0.4061238      1.0007572     -2.7671381
C       2.6786585     -2.5482908     -0.2374320
C       2.8890077     -3.6866044      2.3196825
H       2.5873880     -2.1079295     -1.2314193
H       2.9654911     -4.1226050      3.3176479
C       2.9346551     -3.8911241     -0.0909674
C       3.0386079     -4.4681886      1.1996345
H       3.0514802     -4.5205613     -0.9745469
H       3.2371248     -5.5361919      1.2998459
H      -1.2019356     -2.2571733      2.6106761
C      -3.3609541     -1.7550097      1.3263013
C      -4.4612105     -0.9810961      0.7841708
C      -2.7924250      0.4667139      1.5142387
C      -1.1432572     -1.1828657      2.3969543
C      -4.1214244      0.3655422      0.8135673
N      -2.3510336     -0.8195142      1.6948263
O      -2.1906366      1.4709242      1.8597276
O      -3.2318092     -2.9508127      1.5116558
H      -5.4024782     -1.4350501      0.4861517
H      -1.0659218     -0.6202223      3.3391340
H      -4.7991688      1.2184865      0.8357089
H      -0.2569990     -0.9778841      1.7812020
          85

O      -1.6316134      2.4583085     -0.8299120
C      -2.8122850      2.1755136     -0.9205141
O      -3.7883621      3.0849064     -0.7373732
C      -3.3994839      4.3723609     -0.2696568
C      -4.6398901      5.2315850     -0.1859347
C      -3.3868108      0.8555735     -1.1457389
N      -2.5774956     -0.2135316     -1.3517311
C      -3.1734346     -1.3518583     -1.5830131
C      -2.5143899     -2.6582845     -1.6230814
C      -3.1998734     -3.7275325     -2.2229653
C      -2.6393033     -5.0009949     -2.2733986
C      -1.3836282     -5.2327565     -1.7092956
C      -0.7032206     -4.1822933     -1.0893341
C      -1.2598914     -2.9071047     -1.0393690
H      -2.9228404      4.2505382      0.7154129
H      -2.6569601      4.8023351     -0.9595605
H      -5.1082440      5.3287621     -1.1749594
H      -4.3779088      6.2344030      0.1768520
H      -5.3699263      4.7894946      0.5056732
H      -1.0885844     -0.0104143     -0.7885083
H      -4.4077235      0.8467305     -1.5417149
H      -4.2291719     -1.3441896     -1.8883177
H      -4.1851763     -3.5488300     -2.6603711
H      -3.1845989     -5.8165149     -2.7517401
H      -0.9419840     -6.2302014     -1.7425181
H       0.2696650     -4.3574311     -0.6264202
H      -0.7298884     -2.1026899     -0.5280090
H       2.5175872      5.0389608      2.0309836
C       2.1684922      4.0188766      1.9044447
H       3.7100661      2.5953775      2.6694945
H      -0.5344344      5.1676644      1.6802434
C       2.7494740      2.8299463      2.2207992
H      -0.7151675      4.1785167      0.1832453
C      -0.0106161      4.7076788      0.8335518
N       0.9516829      3.7283279      1.3260324
H       6.6505386      0.9534551     -1.2644427
H       6.2641800      1.8710049     -3.5569483
C       5.6327464      1.0321852     -1.6504936
C       5.4152043      1.5518574     -2.9508197
N       1.8680120      1.8416140      1.8281960
H       0.5278790      5.4745347      0.2661506
C       0.7828833      2.4094641      1.2879624
C       4.5740224      0.6256083     -0.8712760
C       4.1342927      1.6492676     -3.4431026
H       2.1025670      0.5124683      4.0927796
H       4.7514465      0.2247940      0.1291727
H       3.9530653      2.0461182     -4.4446517
C       2.1251985      0.4332283      1.9245131
C       2.2343432     -0.1284646      3.2201480
C       3.2372874      0.7170414     -1.3540400
C       3.0197827      1.2357093     -2.6656248
H      -0.1030090      1.8858228      0.9085341
C       2.1157178      0.3017487     -0.5788741
C       1.6862407      1.3205925     -3.1604210
C       2.2709894     -0.3082268      0.7707920
C       2.4840752     -1.4690001      3.3522752
H       1.5247988      1.7177950     -4.1650060
H       2.5637338     -1.9202112      4.3427064
C       0.6181949      0.9220853     -2.4016337
C       0.8290033      0.4014826     -1.0905549
C       2.5259561     -1.7120859      0.9036369
C       2.6339520     -2.2925208      2.2021045
O      -0.1783626      0.0149897     -0.3149268
H      -0.4060800      1.0004708     -2.7674877
C       2.6786249     -2.5483270     -0.2375292
C       2.8891513     -3.6864153      2.3197622
H       2.5873122     -2.1080202     -1.2315354
H       2.9657404     -4.1223369      3.3177517
C       2.9348349     -3.8910898     -0.0909200
C       3.0388048     -4.4680121      1.1997433
H       3.0518365     -4.5206076     -0.9744192
H       3.2374698     -5.5359805      1.3000144
H      -1.2058864     -2.2555939      2.6090657
C      -3.3636273     -1.7562014      1.3213243
C      -4.4630655     -0.9832351      0.7747001
C      -2.7978093      0.4660071      1.5082921
C      -1.1482223     -1.1814195      2.3944369
C      -4.1254978      0.3632414      0.8062506
N      -2.3557649     -0.8199132      1.6911384
O      -2.1971041      1.4704333      1.8547706
O      -3.2350908     -2.9515661      1.5090337
H      -5.4033393     -1.4382148      0.4751494
H      -1.0721261     -0.6178889      3.3361616
H      -4.8036157      1.2159634      0.8242889
H      -0.2617497     -0.9760015      1.7791234
          85

O      -1.6338336      2.4563298     -0.8340840
C      -2.8145531      2.1740984     -0.9274590
O      -3.7904733      3.0834742     -0.7417646
C      -3.4004027      4.3694108     -0.2708568
C      -4.6396086      5.2303249     -0.1862497
C      -3.3879908      0.8551754     -1.1586732
N      -2.5785613     -0.2142012     -1.3586566
C      -3.1740266     -1.3533307     -1.5880463
C      -2.5148581     -2.6595599     -1.6249368
C      -3.1999794     -3.7295196     -2.2239573
C      -2.6391333     -5.0028427     -2.2733612
C      -1.3834821     -5.2338700     -1.7089118
C      -0.7036571     -4.1828126     -1.0892750
C      -1.2606280     -2.9077141     -1.0403227
H      -2.9244985      4.2448423      0.7142380
H      -2.6568798      4.7999669     -0.9593315
H      -5.1076835      5.3292957     -1.1752362
H      -4.3761607      6.2323785      0.1776033
H      -5.3704573      4.7886597      0.5047740
H      -1.0885871     -0.0098972     -0.7905705
H      -4.4094482      0.8449368     -1.5529821
H      -4.2291456     -1.3463855     -1.8954926
H      -4.1851226     -3.5512907     -2.6619172
H      -3.1841009     -5.8188002     -2.7513422
H      -0.9414396     -6.2311553     -1.7415574
H       0.2691523     -4.3574018     -0.6259775
H      -0.7308974     -2.1027943     -0.5294869
H       2.5172916      5.0387591      2.0309593
C       2.1682263      4.0186684      1.9043822
H       3.7098754      2.5951493      2.6693274
H      -0.5350361      5.1671634      1.6798058
C       2.7492682      2.8297274      2.2206630
H      -0.7157808      4.1771961      0.1833226
C      -0.0112174      4.7069450      0.8332462
N       0.9514171      3.7280563      1.3259843
H       6.6503211      0.9535432     -1.2638646
H       6.2643253      1.8711041     -3.5564376
C       5.6325901      1.0323079     -1.6500691
C       5.4152581      1.5519898     -2.9504195
N       1.8678298      1.8414028      1.8280330
H       0.5269041      5.4736694      0.2653157
C       0.7826645      2.4092047      1.2878597
C       4.5737339      0.6257401     -0.8709978
C       4.1344093      1.6494594     -3.4428504
H       2.1024134      0.5124956      4.0926373
H       4.7510540      0.2249032      0.1294611
H       3.9533042      2.0463305     -4.4444122
C       2.1249423      0.4330537      1.9243814
C       2.2341522     -0.1285080      3.2200541
C       3.2370502      0.7171253     -1.3539458
C       3.0197930      1.2358748     -2.6655318
H      -0.1032718      1.8856230      0.9082813
C       2.1152942      0.3016326     -0.5789961
C       1.6863492      1.3206899     -3.1605927
C       2.2706101     -0.3083873      0.7706531
C       2.4839809     -1.4690063      3.3522181
H       1.5250634      1.7179399     -4.1651811
H       2.5637260     -1.9201938      4.3426518
C       0.6181998      0.9220033     -2.4020914
C       0.8287092      0.4013440     -1.0910229
C       2.5257908     -1.7121844      0.9035473
C       2.6339118     -2.2925154      2.2020548
O      -0.1792833      0.0148437     -0.3159687
H      -0.4060212      1.0003231     -2.7680837
C       2.6785952     -2.5484267     -0.2375857
C       2.8892899     -3.6863545      2.3197877
H       2.5872150     -2.1081768     -1.2316101
H       2.9659450     -4.1222163      3.3177974
C       2.9349949     -3.8911399     -0.0908949
C       3.0390266     -4.4679748      1.1998008
H       3.0520871     -4.5206974     -0.9743520
H       3.2378196     -5.5359142      1.3001210
H      -1.2099908     -2.2541571      2.6076636
C      -3.3663220     -1.7572795      1.3164032
C      -4.4655924     -0.9854513      0.7658489
C      -2.8033982      0.4654070      1.5024166
C      -1.1530659     -1.1801197      2.3921671
C      -4.1305666      0.3607988      0.7989131
N      -2.3602352     -0.8202762      1.6871326
O      -2.2035549      1.4699908      1.8497478
O      -3.2382196     -2.9522491      1.5058887
H      -5.4047996     -1.4419004      0.4651386
H      -1.0785846     -0.6157587      3.3334988
H      -4.8089510      1.2132781      0.8127908
H      -0.2661015     -0.9744098      1.7776397
          85

O      -1.6359194      2.4544755     -0.8380231
C      -2.8166630      2.1727293     -0.9344858
O      -3.7924429      3.0820979     -0.7462088
C      -3.4012996      4.3665478     -0.2721122
C      -4.6394560      5.2289234     -0.1865401
C      -3.3889833      0.8549067     -1.1722557
N      -2.5796210     -0.2149322     -1.3654262
C      -3.1745399     -1.3548518     -1.5930829
C      -2.5152508     -2.6608432     -1.6268324
C      -3.2000416     -3.7314993     -2.2249953
C      -2.6389526     -5.0046927     -2.2733553
C      -1.3833591     -5.2350220     -1.7084967
C      -0.7040463     -4.1833630     -1.0892722
C      -1.2612371     -2.9083216     -1.0414285
H      -2.9260610      4.2393173      0.7129723
H      -2.6568915      4.7978174     -0.9592005
H      -5.1072087      5.3297873     -1.1754968
H      -4.3747839      6.2301959      0.1785894
H      -5.3711048      4.7874066      0.5037415
H      -1.0886120     -0.0093631     -0.7925469
H      -4.4110750      0.8432135     -1.5645781
H      -4.2290158     -1.3486065     -1.9027383
H      -4.1850293     -3.5537232     -2.6634915
H      -3.1836037     -5.8210867     -2.7509643
H      -0.9409852     -6.2321790     -1.7404840
H       0.2686853     -4.3574212     -0.6255942
H      -0.7317247     -2.1028809     -0.5311996
H       2.5168863      5.0386000      2.0307763
C       2.1678586      4.0184928      1.9042187
H       3.7095935      2.5950192      2.6691436
H      -0.5356747      5.1667156      1.6792874
C       2.7489683      2.8295649      2.2204953
H      -0.7164795      4.1759477      0.1833109
C      -0.0118823      4.7062456      0.8328539
N       0.9510539      3.7277819      1.3258513
H       6.6500751      0.9536060     -1.2633255
H       6.2644298      1.8712026     -3.5559520
C       5.6324035      1.0323933     -1.6496809
C       5.4152770      1.5520969     -2.9500495
N       1.8675645      1.8412086      1.8278911
H       0.5259086      5.4728163      0.2644048
C       0.7823620      2.4089362      1.2877317
C       4.5734255      0.6258101     -0.8707531
C       4.1344905      1.6496012     -3.4426248
H       2.1022790      0.5124748      4.0925249
H       4.7506543      0.2249482      0.1297128
H       3.9534928      2.0464971     -4.4441945
C       2.1246433      0.4328845      1.9242704
C       2.2339621     -0.1285800      3.2199722
C       3.2367891      0.7171545     -1.3538692
C       3.0197805      1.2359763     -2.6654625
H      -0.1035905      1.8853930      0.9079759
C       2.1148398      0.3015131     -0.5791220
C       1.6864469      1.3207477     -3.1608081
C       2.2701821     -0.3085478      0.7705284
C       2.4838885     -1.4690485      3.3521606
H       1.5253443      1.7180329     -4.1654094
H       2.5637336     -1.9202107      4.3425971
C       0.6181810      0.9219281     -2.4025877
C       0.8283940      0.4012362     -1.0915148
C       2.5256025     -1.7122920      0.9034671
C       2.6338612     -2.2925487      2.2020024
O      -0.1801995      0.0147534     -0.3169969
H      -0.4059834      1.0002033     -2.7687242
C       2.6785441     -2.5485347     -0.2376361
C       2.8894125     -3.6863421      2.3197901
H       2.5870920     -2.1083366     -1.2316763
H       2.9661378     -4.1221547      3.3178154
C       2.9351207     -3.8912057     -0.0908880
C       3.0392194     -4.4679797      1.1998271
H       3.0522861     -4.5207844     -0.9743187
H       3.2381312     -5.5358935      1.3001804
H      -1.2140999     -2.2528139      2.6062063
C      -3.3689356     -1.7583016      1.3115886
C      -4.4683504     -0.9876402      0.7574014
C      -2.8090516      0.4648353      1.4966024
C      -1.1578516     -1.1789026      2.3899266
C      -4.1359490      0.3582996      0.7917413
N      -2.3646560     -0.8206298      1.6831395
O      -2.2099334      1.4694513      1.8448964
O      -3.2411161     -2.9528891      1.5025320
H      -5.4064429     -1.4457116      0.4556207
H      -1.0850054     -0.6137874      3.3309052
H      -4.8144011      1.2106649      0.8009930
H      -0.2703776     -0.9729007      1.7762155
          85

O      -1.6310340      2.4588663     -0.8372482
C      -2.8112669      2.1734506     -0.9340532
O      -3.7906172      3.0813752     -0.7501460
C      -3.4015304      4.3645986     -0.2723898
C      -4.6390592      5.2276818     -0.1869246
C      -3.3809416      0.8577915     -1.1697168
N      -2.5784856     -0.2151628     -1.3647860
C      -3.1741469     -1.3545201     -1.5967536
C      -2.5154888     -2.6612170     -1.6306296
C      -3.1996270     -3.7336239     -2.2270392
C      -2.6382061     -5.0069750     -2.2722852
C      -1.3828035     -5.2363748     -1.7065544
C      -0.7043878     -4.1834267     -1.0886678
C      -1.2619084     -2.9084478     -1.0436402
H      -2.9283133      4.2353111      0.7135139
H      -2.6553691      4.7979412     -0.9563270
H      -5.1048799      5.3320826     -1.1764549
H      -4.3737787      6.2275716      0.1816750
H      -5.3725493      4.7852096      0.5008320
H      -1.0893338     -0.0108118     -0.7948520
H      -4.4069326      0.8450054     -1.5514592
H      -4.2291207     -1.3466349     -1.9048909
H      -4.1843888     -3.5572153     -2.6666494
H      -3.1826282     -5.8243466     -2.7485277
H      -0.9402783     -6.2335335     -1.7364811
H       0.2679403     -4.3561555     -0.6236080
H      -0.7327757     -2.1024225     -0.5339240
H       2.5159011      5.0383935      2.0304138
C       2.1669860      4.0182398      1.9039253
H       3.7090598      2.5950395      2.6687074
H      -0.5358396      5.1671226      1.6789115
C       2.7483333      2.8294128      2.2201822
H      -0.7181511      4.1746092      0.1841218
C      -0.0130094      4.7055490      0.8324796
N       0.9501342      3.7273737      1.3257204
H       6.6494800      0.9537820     -1.2617688
H       6.2648436      1.8715175     -3.5545138
C       5.6319741      1.0326106     -1.6485567
C       5.4154353      1.5523979     -2.9489766
N       1.8669567      1.8409395      1.8277868
H       0.5245354      5.4714035      0.2628183
C       0.7815918      2.4085266      1.2877875
C       4.5726784      0.6259871     -0.8700633
C       4.1348322      1.6499818     -3.4420055
H       2.1021097      0.5124475      4.0923034
H       4.7495615      0.2250640      0.1304396
H       3.9541807      2.0469819     -4.4435979
C       2.1240062      0.4326449      1.9240559
C       2.2336245     -0.1287054      3.2197954
C       3.2362286      0.7172962     -1.3536720
C       3.0198491      1.2362978     -2.6653107
H      -0.1044365      1.8850811      0.9080226
C       2.1139839      0.3014000     -0.5794725
C       1.6867655      1.3213434     -3.1612315
C       2.2691401     -0.3088066      0.7702326
C       2.4837065     -1.4691249      3.3520385
H       1.5261415      1.7189958     -4.1657643
H       2.5638497     -1.9202263      4.3424789
C       0.6181914      0.9225649     -2.4034900
C       0.8277640      0.4013035     -1.0924738
C       2.5250006     -1.7124985      0.9032899
C       2.6336683     -2.2926270      2.2018737
O      -0.1810743      0.0145326     -0.3186955
H      -0.4058075      1.0015084     -2.7699480
C       2.6782952     -2.5487908     -0.2377308
C       2.8897470     -3.6863119      2.3197720
H       2.5866582     -2.1086821     -1.2317965
H       2.9667445     -4.1219896      3.3178369
C       2.9354473     -3.8913530     -0.0908794
C       3.0397854     -4.4679968      1.1998735
H       3.0528846     -4.5209428     -0.9742675
H       3.2391265     -5.5358241      1.3003065
H      -1.2142229     -2.2510719      2.6068108
C      -3.3677654     -1.7586557      1.3107516
C      -4.4710541     -0.9858160      0.7645719
C      -2.8108241      0.4649798      1.4989141
C      -1.1589054     -1.1773834      2.3891280
C      -4.1413044      0.3571741      0.8125311
N      -2.3639619     -0.8210144      1.6794545
O      -2.2122074      1.4716826      1.8406922
O      -3.2429925     -2.9534100      1.4993539
H      -5.4083743     -1.4436756      0.4600452
H      -1.0894391     -0.6108223      3.3295771
H      -4.8162191      1.2122146      0.8075542
H      -0.2700441     -0.9711944      1.7776243
          85

O      -1.6331433      2.4564904     -0.8410890
C      -2.8133959      2.1720022     -0.9407907
O      -3.7923674      3.0800607     -0.7547756
C      -3.4023725      4.3619375     -0.2739215
C      -4.6392271      5.2259170     -0.1873060
C      -3.3823913      0.8571206     -1.1814636
N      -2.5794278     -0.2160399     -1.3713840
C      -3.1744582     -1.3560592     -1.6018973
C      -2.5156239     -2.6625555     -1.6328330
C      -3.1995201     -3.7355566     -2.2283803
C      -2.6380396     -5.0088669     -2.2723130
C      -1.3828260     -5.2376255     -1.7059161
C      -0.7047113     -4.1840639     -1.0887145
C      -1.2622605     -2.9090517     -1.0450783
H      -2.9296694      4.2300333      0.7118894
H      -2.6555459      4.7961388     -0.9565976
H      -5.1046578      5.3323300     -1.1768151
H      -4.3732938      6.2250009      0.1830260
H      -5.3733083      4.7828919      0.4994684
H      -1.0894444     -0.0103726     -0.7967901
H      -4.4080006      0.8435189     -1.5640986
H      -4.2288052     -1.3489988     -1.9121998
H      -4.1840725     -3.5595017     -2.6686007
H      -3.1821992     -5.8266922     -2.7480838
H      -0.9401687     -6.2347560     -1.7348385
H       0.2674979     -4.3563518     -0.6232284
H      -0.7332786     -2.1024581     -0.5361125
H       2.5151637      5.0382235      2.0299360
C       2.1662962      4.0180412      1.9035464
H       3.7084618      2.5949771      2.6684425
H      -0.5369441      5.1664674      1.6780581
C       2.7477191      2.8292621      2.2199007
H      -0.7188529      4.1734481      0.1835246
C      -0.0138963      4.7048255      0.8318044
N       0.9494689      3.7270310      1.3253636
H       6.6491657      0.9538017     -1.2610604
H       6.2649799      1.8716309     -3.5538481
C       5.6317373      1.0326475     -1.6480479
C       5.4154574      1.5524888     -2.9484830
N       1.8664040      1.8407094      1.8275832
H       0.5234475      5.4706646      0.2619396
C       0.7810036      2.4081817      1.2875382
C       4.5722852      0.6259741     -0.8697717
C       4.1349448      1.6500961     -3.4417365
H       2.1018594      0.5123700      4.0921407
H       4.7490136      0.2249988      0.1307380
H       3.9544634      2.0471377     -4.4433421
C       2.1235077      0.4324405      1.9238915
C       2.2333126     -0.1288207      3.2196525
C       3.2359140      0.7172673     -1.3536188
C       3.0198244      1.2363563     -2.6652669
H      -0.1050203      1.8847167      0.9076658
C       2.1134614      0.3012476     -0.5796563
C       1.6868622      1.3213775     -3.1615045
C       2.2685675     -0.3090032      0.7700574
C       2.4835676     -1.4692000      3.3519151
H       1.5264536      1.7190687     -4.1660545
H       2.5638861     -1.9202584      4.3423603
C       0.6181435      0.9224946     -2.4040621
C       0.8273961      0.4011952     -1.0930338
C       2.5246844     -1.7126436      0.9031547
C       2.6335473     -2.2927026      2.2017586
O      -0.1819880      0.0144270     -0.3197400
H      -0.4057889      1.0013927     -2.7706882
C       2.6781145     -2.5489369     -0.2378383
C       2.8898740     -3.6863331      2.3197034
H       2.5863564     -2.1088869     -1.2319188
H       2.9669930     -4.1219565      3.3177822
C       2.9355218     -3.8914442     -0.0909409
C       3.0400028     -4.4680275      1.1998257
H       3.0530410     -4.5210440     -0.9743096
H       3.2395335     -5.5358169      1.3002837
H      -1.2186509     -2.2498452      2.6046303
C      -3.3708364     -1.7595403      1.3056373
C      -4.4737480     -0.9879173      0.7558332
C      -2.8162809      0.4644818      1.4927618
C      -1.1640341     -1.1761924      2.3866436
C      -4.1456195      0.3552262      0.8035831
N      -2.3687734     -0.8211412      1.6755188
O      -2.2185683      1.4711694      1.8359609
O      -3.2457310     -2.9539724      1.4956109
H      -5.4100985     -1.4470653      0.4501998
H      -1.0960023     -0.6092700      3.3269657
H      -4.8210035      1.2097727      0.7956102
H      -0.2747575     -0.9694514      1.7759104
