          85

O      -1.6575117      2.3283141     -1.0892845
C      -2.8336419      2.0924010     -1.2226230
O      -3.7679140      3.0274725     -1.4143128
C      -3.4205073      4.3911872     -1.1500241
C      -3.7740825      4.7100665      0.2901142
C      -3.4748510      0.7363898     -1.1204254
N      -2.5753030     -0.3372668     -1.3425877
C      -3.1903347     -1.4722902     -1.4684288
C      -2.5804360     -2.8020733     -1.3311062
C      -3.3187865     -3.9132059     -1.7642319
C      -2.8193984     -5.2039236     -1.6090277
C      -1.5754779     -5.3999152     -1.0061474
C      -0.8422762     -4.3008372     -0.5535828
C      -1.3416441     -3.0099063     -0.7048953
H      -2.3530550      4.5385675     -1.3603445
H      -4.0030779      4.9929437     -1.8578074
H      -3.4379190      5.7221242      0.5571539
H      -3.2973033      3.9790770      0.9605297
H      -4.8613358      4.6526824      0.4379541
H      -1.1188816     -0.1350341     -0.8636899
H      -4.3678917      0.7117859     -1.7714982
H      -4.2345823     -1.4819238     -1.8095955
H      -4.2967523     -3.7580625     -2.2261788
H      -3.4025409     -6.0593628     -1.9537114
H      -1.1825292     -6.4102481     -0.8791428
H       0.1241090     -4.4479005     -0.0662546
H      -0.7747140     -2.1604725     -0.3245529
H       1.8365987      4.8137723      2.8131330
C       1.6619520      3.8010292      2.4638872
H       3.3086613      2.4704676      3.1722308
H      -0.0589201      5.2777838      0.8462013
C       2.3796790      2.6587698      2.6430128
H      -1.1127979      4.6271523      2.1506874
C      -0.4991771      4.3722231      1.2787240
N       0.5712235      3.4710581      1.6876403
H       6.5883036      1.3257381     -1.0804666
H       6.2160832      2.3031064     -3.3503707
C       5.5819719      1.3440058     -1.5025212
C       5.3725596      1.8977415     -2.7898369
N       1.7076246      1.6574007      1.9669887
H      -1.1049313      3.8436985      0.5354761
C       0.6138617      2.1762094      1.3962591
C       4.5296892      0.8292404     -0.7804539
C       4.1063808      1.9186116     -3.3275942
H       2.1028428      0.1824969      4.0990081
H       4.7012232      0.4043392      0.2108225
H       3.9316764      2.3392275     -4.3205804
C       2.0923867      0.2769297      1.9292475
C       2.2619608     -0.3769176      3.1760661
C       3.2074758      0.8434188     -1.3091283
C       2.9993383      1.3940138     -2.6089246
H      -0.1435689      1.6277473      0.8306713
C       2.0915599      0.3249004     -0.5888412
C       1.6824990      1.3928131     -3.1535124
C       2.2637137     -0.3640090      0.7206343
C       2.5981145     -1.7036527      3.2023345
H       1.5292469      1.8031155     -4.1541111
H       2.7265256     -2.2208310      4.1546221
C       0.6201239      0.8963626     -2.4469316
C       0.8174779      0.3603455     -1.1391411
C       2.5923791     -1.7606615      0.7433713
C       2.7638460     -2.4300021      1.9906400
O      -0.1856875     -0.1013148     -0.4017185
H      -0.3905603      0.9046048     -2.8552590
C       2.7486367     -2.5051899     -0.4595781
C       3.0922024     -3.8132364      1.9987493
H       2.6079255     -2.0009838     -1.4164863
H       3.2216685     -4.3145450      2.9599208
C       3.0656042     -3.8423899     -0.4199387
C       3.2416408     -4.5046727      0.8207098
H       3.1784264     -4.4004406     -1.3505745
H       3.4940718     -5.5659026      0.8364216
H      -1.2678052     -0.1707548      3.3529157
C      -3.5775551     -1.5196068      1.4029136
C      -4.5353695     -0.8195636      0.6482404
C      -2.8616894      0.6884946      1.3283227
C      -1.3676948     -0.8783851      2.5159331
C      -4.0685795      0.5567075      0.4051900
N      -2.5226167     -0.5580872      1.7180828
O      -2.2831518      1.7266873      1.6319073
O      -3.4830823     -2.6755458      1.8094184
H      -5.4781206     -1.2516340      0.3247909
H      -0.4522653     -0.8442940      1.9043768
H      -4.7781006      1.3868291      0.5532910
H      -1.5100650     -1.8960592      2.8996896
          85

O      -1.6564409      2.3257824     -1.0792306
C      -2.8317933      2.0915376     -1.2204097
O      -3.7628086      3.0276552     -1.4209901
C      -3.4165710      4.3905240     -1.1511465
C      -3.7749786      4.7039806      0.2889647
C      -3.4759843      0.7367651     -1.1171030
N      -2.5774667     -0.3382322     -1.3398978
C      -3.1929660     -1.4726217     -1.4668875
C      -2.5829738     -2.8026450     -1.3306059
C      -3.3210490     -3.9143482     -1.7627179
C      -2.8206632     -5.2047743     -1.6075059
C      -1.5761327     -5.3998894     -1.0056150
C      -0.8431740     -4.3002357     -0.5541061
C      -1.3435465     -3.0097454     -0.7054613
H      -2.3485411      4.5391405     -1.3577053
H      -3.9972903      4.9942146     -1.8587190
H      -3.4419826      5.7159192      0.5602919
H      -3.2985661      3.9720209      0.9586609
H      -4.8625596      4.6436601      0.4331313
H      -1.1194361     -0.1357601     -0.8631864
H      -4.3675888      0.7137180     -1.7708893
H      -4.2377501     -1.4817184     -1.8064639
H      -4.2995308     -3.7600710     -2.2238586
H      -3.4035850     -6.0606761     -1.9514114
H      -1.1825236     -6.4099668     -0.8785904
H       0.1236988     -4.4464786     -0.0675167
H      -0.7768168     -2.1599444     -0.3257548
H       1.8360678      4.8137127      2.8132165
C       1.6611626      3.8009013      2.4638218
H       3.3079176      2.4699342      3.1716299
H      -0.0591549      5.2789202      0.8479373
C       2.3787053      2.6585310      2.6426055
H      -1.1134522      4.6275390      2.1517504
C      -0.4998521      4.3731725      1.2796116
N       0.5701943      3.4712795      1.6878220
H       6.5876927      1.3256288     -1.0802414
H       6.2157470      2.3029836     -3.3501942
C       5.5814025      1.3439483     -1.5023909
C       5.3721359      1.8976998     -2.7897344
N       1.7063298      1.6573640      1.9666148
H      -1.1057209      3.8455293      0.5359428
C       0.6124723      2.1764363      1.3962227
C       4.5290342      0.8292048     -0.7804598
C       4.1060093      1.9187359     -3.3275995
H       2.1023114      0.1828346      4.0985904
H       4.7004348      0.4042354      0.2108074
H       3.9314488      2.3394270     -4.3205782
C       2.0914144      0.2769776      1.9288159
C       2.2615567     -0.3766141      3.1756880
C       3.2068765      0.8434860     -1.3092907
C       2.9988247      1.3942750     -2.6090181
H      -0.1449380      1.6283069      0.8303053
C       2.0909283      0.3248504     -0.5892087
C       1.6819557      1.3935089     -3.1535350
C       2.2630209     -0.3640237      0.7202818
C       2.5985471     -1.7031310      3.2021051
H       1.5287257      1.8041664     -4.1539894
H       2.7275256     -2.2200610      4.1544492
C       0.6194983      0.8969661     -2.4470745
C       0.8169018      0.3602631     -1.1396101
C       2.5921453     -1.7605661      0.7431610
C       2.7643358     -2.4296005      1.9904953
O      -0.1859253     -0.1022812     -0.4023429
H      -0.3911449      0.9053096     -2.8555708
C       2.7481587     -2.5053000     -0.4596926
C       3.0933860     -3.8126675      1.9987652
H       2.6068180     -2.0013599     -1.4166492
H       3.2235012     -4.3137027      2.9599900
C       3.0656371     -3.8423775     -0.4198977
C       3.2425866     -4.5042999      0.8208130
H       3.1782011     -4.4006029     -1.3504596
H       3.4955011     -5.5654119      0.8366408
H      -1.2564420     -0.1704744      3.3452714
C      -3.5743706     -1.5179163      1.4007106
C      -4.5351005     -0.8155248      0.6531037
C      -2.8600401      0.6909227      1.3326854
C      -1.3616851     -0.8796269      2.5102801
C      -4.0666027      0.5605476      0.4083724
N      -2.5185375     -0.5567720      1.7162115
O      -2.2841488      1.7290107      1.6415300
O      -3.4772021     -2.6754354      1.8022072
H      -5.4777939     -1.2473076      0.3293950
H      -0.4483831     -0.8498786      1.8954797
H      -4.7770302      1.3915036      0.5613484
H      -1.5058983     -1.8960311      2.8967049
          85

O      -1.6498547      2.3216002     -1.0616680
C      -2.8238619      2.0891122     -1.2175667
O      -3.7501776      3.0266530     -1.4337668
C      -3.4075212      4.3881100     -1.1528178
C      -3.7778479      4.6908000      0.2865918
C      -3.4731150      0.7374523     -1.1123067
N      -2.5794834     -0.3414371     -1.3354283
C      -3.1963791     -1.4744140     -1.4657452
C      -2.5871360     -2.8049115     -1.3309754
C      -3.3254695     -3.9177685     -1.7598730
C      -2.8237007     -5.2077234     -1.6037617
C      -1.5777926     -5.4013397     -1.0042239
C      -0.8446083     -4.3005482     -0.5559229
C      -1.3463635     -3.0108457     -0.7081386
H      -2.3381614      4.5396881     -1.3504486
H      -3.9837863      4.9953948     -1.8608972
H      -3.4525525      5.7027988      0.5669212
H      -3.3026838      3.9571776      0.9554538
H      -4.8661945      4.6236874      0.4217438
H      -1.1191734     -0.1386640     -0.8635993
H      -4.3692930      0.7157023     -1.7495391
H      -4.2425496     -1.4813975     -1.8012257
H      -4.3050693     -3.7650440     -2.2191861
H      -3.4067895     -6.0645169     -1.9451800
H      -1.1833768     -6.4110206     -0.8764974
H       0.1232912     -4.4452839     -0.0709232
H      -0.7795528     -2.1603748     -0.3302956
H       1.8344010      4.8132944      2.8126277
C       1.6588176      3.8005949      2.4632499
H       3.3055710      2.4687916      3.1694203
H      -0.0604201      5.2811549      0.8514193
C       2.3759731      2.6579259      2.6412692
H      -1.1157344      4.6284145      2.1538029
C      -0.5021603      4.3750846      1.2813454
N       0.5670870      3.4716180      1.6881784
H       6.5869594      1.3256750     -1.0796654
H       6.2156932      2.3029107     -3.3497631
C       5.5807753      1.3440707     -1.5020621
C       5.3718777      1.8977944     -2.7894916
N       1.7026270      1.6571217      1.9657397
H      -1.1081781      3.8492532      0.5367001
C       0.6083541      2.1767100      1.3963413
C       4.5281968      0.8293978     -0.7804292
C       4.1058923      1.9190877     -3.3276653
H       2.1001642      0.1833687      4.0975982
H       4.6992671      0.4043463      0.2108571
H       3.9316650      2.3398486     -4.3206713
C       2.0887534      0.2769820      1.9277827
C       2.2599984     -0.3760755      3.1747882
C       3.2062123      0.8438064     -1.3096710
C       2.9984224      1.3948505     -2.6093355
H      -0.1492121      1.6294117      0.8297346
C       2.0901493      0.3248892     -0.5901287
C       1.6816121      1.3946182     -3.1539952
C       2.2616991     -0.3639625      0.7194212
C       2.5992225     -1.7020072      3.2015583
H       1.5285580      1.8058511     -4.1542362
H       2.7293986     -2.2183889      4.1540355
C       0.6189862      0.8976799     -2.4479855
C       0.8164125      0.3599133     -1.1410213
C       2.5919199     -1.7602519      0.7426470
C       2.7654995     -2.4286534      1.9901362
O      -0.1856388     -0.1046827     -0.4041583
H      -0.3914534      0.9060107     -2.8570696
C       2.7474695     -2.5054341     -0.4599865
C       3.0960952     -3.8113455      1.9987838
H       2.6048345     -2.0020670     -1.4170582
H       3.2275388     -4.3117896      2.9601353
C       3.0659318     -3.8422753     -0.4198250
C       3.2448061     -4.5034127      0.8210306
H       3.1778954     -4.4009044     -1.3502165
H       3.4987243     -5.5642798      0.8371234
H      -1.2374022     -0.1644790      3.3257908
C      -3.5707349     -1.5147248      1.3953937
C      -4.5406189     -0.8092377      0.6617938
C      -2.8653504      0.6971985      1.3381999
C      -1.3537641     -0.8780550      2.4961427
C      -4.0726659      0.5651406      0.4154391
N      -2.5162476     -0.5525672      1.7109611
O      -2.2949125      1.7355083      1.6558949
O      -3.4661946     -2.6754966      1.7848899
H      -5.4798427     -1.2439462      0.3324083
H      -0.4458889     -0.8570349      1.8732710
H      -4.7764542      1.3964300      0.5453050
H      -1.4998056     -1.8914222      2.8897676
          85

O      -1.6411117      2.3220461     -1.0487363
C      -2.8138989      2.0883343     -1.2145362
O      -3.7361826      3.0262775     -1.4464406
C      -3.4010219      4.3872717     -1.1543898
C      -3.7806509      4.6780879      0.2852531
C      -3.4692235      0.7384673     -1.1116110
N      -2.5829953     -0.3452097     -1.3295065
C      -3.2008600     -1.4769302     -1.4649446
C      -2.5917117     -2.8079003     -1.3314827
C      -3.3291254     -3.9225452     -1.7575951
C      -2.8250114     -5.2116955     -1.6004917
C      -1.5779829     -5.4030311     -1.0025573
C      -0.8457303     -4.3005496     -0.5569317
C      -1.3496847     -3.0119805     -0.7104364
H      -2.3313864      4.5457922     -1.3456292
H      -3.9766939      4.9964510     -1.8612828
H      -3.4629502      5.6901024      0.5741078
H      -3.3049715      3.9429269      0.9520913
H      -4.8693364      4.6037694      0.4137864
H      -1.1193689     -0.1413309     -0.8627803
H      -4.3624582      0.7224691     -1.7586923
H      -4.2481436     -1.4817030     -1.7967845
H      -4.3097550     -3.7722096     -2.2155211
H      -3.4074452     -6.0697402     -1.9398952
H      -1.1820769     -6.4120318     -0.8740206
H       0.1229888     -4.4430646     -0.0729021
H      -0.7833198     -2.1604934     -0.3344618
H       1.8326712      4.8129363      2.8121619
C       1.6566740      3.8003277      2.4627303
H       3.3032708      2.4679094      3.1679954
H      -0.0606363      5.2831589      0.8537929
C       2.3735102      2.6574368      2.6402764
H      -1.1176523      4.6293028      2.1542835
C      -0.5036439      4.3768368      1.2818832
N       0.5646067      3.4718864      1.6880312
H       6.5862738      1.3260306     -1.0790101
H       6.2155327      2.3028957     -3.3493214
C       5.5802001      1.3442522     -1.5016730
C       5.3715841      1.8978136     -2.7892280
N       1.6996566      1.6569339      1.9648741
H      -1.1093744      3.8528295      0.5359017
C       0.6050862      2.1768945      1.3961308
C       4.5275044      0.8294663     -0.7803208
C       4.1057560      1.9190816     -3.3277351
H       2.0987994      0.1839697      4.0967709
H       4.6983179      0.4044380      0.2110169
H       3.9317772      2.3398170     -4.3207921
C       2.0866800      0.2770037      1.9269617
C       2.2590496     -0.3755416      3.1740789
C       3.2056762      0.8438389     -1.3099459
C       2.9980907      1.3950407     -2.6095720
H      -0.1527132      1.6301728      0.8291891
C       2.0894609      0.3248224     -0.5907982
C       1.6813285      1.3955191     -3.1543012
C       2.2606165     -0.3640094      0.7187871
C       2.6001053     -1.7010073      3.2011169
H       1.5284407      1.8072498     -4.1543546
H       2.7314265     -2.2168826      4.1537129
C       0.6185220      0.8986124     -2.4485230
C       0.8159635      0.3599449     -1.1420673
C       2.5916625     -1.7601102      0.7422617
C       2.7665305     -2.4279352      1.9898804
O      -0.1856385     -0.1059043     -0.4054172
H      -0.3918063      0.9073125     -2.8579392
C       2.7466483     -2.5057107     -0.4601941
C       3.0983814     -3.8103331      1.9988194
H       2.6028008     -2.0028520     -1.4173579
H       3.2310244     -4.3102795      2.9602666
C       3.0660031     -3.8423395     -0.4197480
C       3.2466279     -4.5027807      0.8212285
H       3.1773971     -4.4013157     -1.3499993
H       3.5014349     -5.5634318      0.8375482
H      -1.2163381     -0.1578781      3.3037014
C      -3.5683218     -1.5127747      1.3907625
C      -4.5481447     -0.8028657      0.6731503
C      -2.8726331      0.7019515      1.3460389
C      -1.3451450     -0.8763176      2.4801229
C      -4.0798415      0.5699484      0.4260323
N      -2.5151931     -0.5492599      1.7068982
O      -2.3065191      1.7411557      1.6681549
O      -3.4549479     -2.6770075      1.7674297
H      -5.4870090     -1.2389794      0.3442692
H      -0.4442554     -0.8634053      1.8473210
H      -4.7849124      1.4049425      0.5556826
H      -1.4908854     -1.8866081      2.8818952
          85

O      -1.6304048      2.3309247     -1.0412039
C      -2.8007731      2.0894447     -1.2197900
O      -3.7248215      3.0261601     -1.4564555
C      -3.3986015      4.3867098     -1.1544184
C      -3.7824255      4.6708319      0.2857643
C      -3.4581629      0.7410915     -1.1235970
N      -2.5846333     -0.3480971     -1.3324493
C      -3.2049267     -1.4795026     -1.4659993
C      -2.5951718     -2.8098771     -1.3308082
C      -3.3307905     -3.9261732     -1.7559345
C      -2.8249614     -5.2146943     -1.5985748
C      -1.5776012     -5.4048622     -1.0010090
C      -0.8462632     -4.3009491     -0.5574417
C      -1.3517795     -3.0130333     -0.7115842
H      -2.3294938      4.5529850     -1.3421720
H      -3.9759141      4.9966217     -1.8593651
H      -3.4678608      5.6829258      0.5779518
H      -3.3061182      3.9351870      0.9515772
H      -4.8712017      4.5937698      0.4121515
H      -1.1174573     -0.1438486     -0.8635878
H      -4.3597773      0.7278332     -1.7542476
H      -4.2537861     -1.4824037     -1.7932260
H      -4.3116854     -3.7776522     -2.2138954
H      -3.4066858     -6.0733425     -1.9377209
H      -1.1806756     -6.4133828     -0.8718711
H       0.1232642     -4.4416321     -0.0744640
H      -0.7851627     -2.1611355     -0.3370755
H       1.8312314      4.8126489      2.8121458
C       1.6551366      3.8001266      2.4625163
H       3.3014515      2.4673413      3.1676201
H      -0.0608185      5.2841875      0.8544856
C       2.3717767      2.6570974      2.6398414
H      -1.1188476      4.6298216      2.1538187
C      -0.5045525      4.3777131      1.2815173
N       0.5631735      3.4720548      1.6875734
H       6.5857924      1.3264522     -1.0784651
H       6.2152766      2.3029661     -3.3489258
C       5.5797968      1.3444113     -1.5013190
C       5.3712807      1.8977988     -2.7889657
N       1.6979719      1.6568554      1.9641326
H      -1.1098462      3.8546980      0.5346028
C       0.6033553      2.1770464      1.3955261
C       4.5270518      0.8294760     -0.7801914
C       4.1055781      1.9189073     -3.3277763
H       2.0981827      0.1845897      4.0960972
H       4.6976235      0.4045257      0.2112169
H       3.9317997      2.3396278     -4.3208711
C       2.0855562      0.2770820      1.9264635
C       2.2587404     -0.3751474      3.1736400
C       3.2053945      0.8437425     -1.3101497
C       2.9977949      1.3949373     -2.6097570
H      -0.1547610      1.6309137      0.8283387
C       2.0891772      0.3247127     -0.5911219
C       1.6809730      1.3959857     -3.1543561
C       2.2600511     -0.3640979      0.7184595
C       2.6008063     -1.7003697      3.2008162
H       1.5280515      1.8080494     -4.1542572
H       2.7329378     -2.2159227      4.1534808
C       0.6180897      0.8994945     -2.4484199
C       0.8158951      0.3602155     -1.1424149
C       2.5914142     -1.7601217      0.7420345
C       2.7671212     -2.4275810      1.9897217
O      -0.1854863     -0.1061934     -0.4055284
H      -0.3922665      0.9088690     -2.8577561
C       2.7459767     -2.5059814     -0.4603193
C       3.0998014     -3.8097844      1.9988272
H       2.6012859     -2.0034646     -1.4175389
H       3.2332685     -4.3094162      2.9603254
C       3.0660019     -3.8424492     -0.4197117
C       3.2478186     -4.5024432      0.8213278
H       3.1770373     -4.4016335     -1.3498802
H       3.5032900     -5.5629325      0.8377684
H      -1.2018056     -0.1521327      3.2870763
C      -3.5650688     -1.5123035      1.3917292
C      -4.5599031     -0.7979924      0.6922538
C      -2.8844369      0.7038675      1.3550109
C      -1.3378048     -0.8751828      2.4687780
C      -4.0973898      0.5704816      0.4455946
N      -2.5147541     -0.5492914      1.7042097
O      -2.3158677      1.7419874      1.6740049
O      -3.4463669     -2.6797692      1.7536958
H      -5.5020942     -1.2364600      0.3757670
H      -0.4418818     -0.8671675      1.8292864
H      -4.7972599      1.4094847      0.5479095
H      -1.4813328     -1.8829077      2.8777351
          85

O      -1.6236813      2.3381208     -1.0364246
C      -2.7915256      2.0900112     -1.2292459
O      -3.7201558      3.0259999     -1.4605386
C      -3.3983266      4.3856580     -1.1539223
C      -3.7830512      4.6686000      0.2863350
C      -3.4424198      0.7444352     -1.1520751
N      -2.5846367     -0.3487822     -1.3371231
C      -3.2072335     -1.4810397     -1.4671406
C      -2.5968102     -2.8102883     -1.3299676
C      -3.3309683     -3.9276423     -1.7554636
C      -2.8246699     -5.2159107     -1.5978088
C      -1.5774301     -5.4060553     -1.0000007
C      -0.8464664     -4.3013833     -0.5577066
C      -1.3523549     -3.0136152     -0.7122623
H      -2.3294846      4.5555848     -1.3401809
H      -3.9763501      4.9961933     -1.8579057
H      -3.4691502      5.6808170      0.5789827
H      -3.3064539      3.9329688      0.9518896
H      -4.8718428      4.5910338      0.4125702
H      -1.1157423     -0.1442988     -0.8636671
H      -4.3585442      0.7289705     -1.7616127
H      -4.2551840     -1.4822398     -1.7973090
H      -4.3116611     -3.7799087     -2.2141298
H      -3.4061843     -6.0746283     -1.9372414
H      -1.1803032     -6.4144175     -0.8703327
H       0.1235168     -4.4411848     -0.0753214
H      -0.7849714     -2.1618051     -0.3387529
H       1.8305008      4.8124951      2.8122110
C       1.6544048      3.8000185      2.4624494
H       3.3005954      2.4670875      3.1675737
H      -0.0609993      5.2844864      0.8545506
C       2.3709738      2.6569478      2.6397384
H      -1.1194755      4.6299375      2.1533121
C      -0.5050677      4.3779171      1.2810581
N       0.5625543      3.4721122      1.6873088
H       6.5855182      1.3266490     -1.0781267
H       6.2151351      2.3029985     -3.3486615
C       5.5795698      1.3444758     -1.5010950
C       5.3711121      1.8977751     -2.7887819
N       1.6972180      1.6568023      1.9638126
H      -1.1099163      3.8550665      0.5336132
C       0.6026632      2.1771632      1.3950171
C       4.5267818      0.8294779     -0.7801020
C       4.1054733      1.9187975     -3.3277727
H       2.0982214      0.1848032      4.0958653
H       4.6972023      0.4045791      0.2113525
H       3.9318223      2.3395237     -4.3208859
C       2.0851020      0.2771172      1.9262162
C       2.2586836     -0.3749886      3.1734220
C       3.2052479      0.8436814     -1.3102675
C       2.9976167      1.3948320     -2.6098721
H      -0.1556380      1.6316452      0.8273525
C       2.0890527      0.3246586     -0.5912982
C       1.6807354      1.3961335     -3.1543940
C       2.2597609     -0.3641576      0.7182850
C       2.6011498     -1.7001166      3.2006869
H       1.5277872      1.8083989     -4.1542031
H       2.7337150     -2.2154940      4.1533885
C       0.6177778      0.8999944     -2.4483183
C       0.8159022      0.3604311     -1.1425369
C       2.5912385     -1.7601534      0.7419316
C       2.7673689     -2.4274476      1.9896498
O      -0.1851545     -0.1062862     -0.4052162
H      -0.3926710      0.9101071     -2.8574089
C       2.7456214     -2.5061241     -0.4603730
C       3.1004636     -3.8095507      1.9988357
H       2.6005053     -2.0037680     -1.4176128
H       3.2343474     -4.3090287      2.9603566
C       3.0660010     -3.8425037     -0.4196878
C       3.2483842     -4.5022942      0.8213752
H       3.1768748     -4.4017797     -1.3498188
H       3.5041890     -5.5627022      0.8378609
H      -1.1968006     -0.1494019      3.2802984
C      -3.5598208     -1.5122154      1.3938688
C      -4.5677687     -0.7945219      0.7056814
C      -2.8937897      0.7043851      1.3628872
C      -1.3336348     -0.8752814      2.4647015
C      -4.1196359      0.5683553      0.4773717
N      -2.5135570     -0.5513403      1.7028797
O      -2.3193969      1.7405592      1.6748409
O      -3.4434265     -2.6808651      1.7467144
H      -5.5133589     -1.2355219      0.4033524
H      -0.4390652     -0.8689857      1.8235967
H      -4.8159828      1.4128400      0.5484534
H      -1.4753797     -1.8815476      2.8778846
          85

O      -1.6183730      2.3438568     -1.0326824
C      -2.7842977      2.0900029     -1.2374404
O      -3.7174300      3.0259202     -1.4629473
C      -3.3984681      4.3845662     -1.1536575
C      -3.7833948      4.6673412      0.2865866
C      -3.4255205      0.7482221     -1.1840568
N      -2.5846397     -0.3486867     -1.3401849
C      -3.2086996     -1.4823128     -1.4684393
C      -2.5977991     -2.8103186     -1.3297252
C      -3.3308724     -3.9286377     -1.7555053
C      -2.8244391     -5.2167152     -1.5972467
C      -1.5773696     -5.4069966     -0.9991060
C      -0.8466626     -4.3017260     -0.5578578
C      -1.3525639     -3.0140517     -0.7130409
H      -2.3297967      4.5569719     -1.3390073
H      -3.9769873      4.9956699     -1.8569489
H      -3.4698480      5.6796137      0.5795788
H      -3.3065576      3.9316391      0.9518221
H      -4.8721894      4.5894473      0.4129486
H      -1.1142827     -0.1440306     -0.8634546
H      -4.3591840      0.7285843     -1.7636601
H      -4.2552864     -1.4817807     -1.8028424
H      -4.3113122     -3.7814516     -2.2149153
H      -3.4059053     -6.0754695     -1.9367980
H      -1.1802381     -6.4152610     -0.8688206
H       0.1235807     -4.4408704     -0.0757295
H      -0.7844747     -2.1623774     -0.3403076
H       1.8299196      4.8123749      2.8122253
C       1.6538295      3.7999231      2.4623886
H       3.2999500      2.4669132      3.1675449
H      -0.0611593      5.2846486      0.8545714
C       2.3703630      2.6568337      2.6396703
H      -1.1200356      4.6299435      2.1528026
C      -0.5055092      4.3779814      1.2806051
N       0.5620635      3.4721201      1.6871174
H       6.5852563      1.3267807     -1.0778068
H       6.2150305      2.3030057     -3.3484090
C       5.5793534      1.3445159     -1.5008857
C       5.3709731      1.8977468     -2.7886057
N       1.6966416      1.6567437      1.9635960
H      -1.1099004      3.8551276      0.5326622
C       0.6021437      2.1772320      1.3946096
C       4.5265111      0.8294809     -0.7800160
C       4.1053887      1.9187100     -3.3277562
H       2.0983077      0.1849691      4.0956898
H       4.6967969      0.4046233      0.2114784
H       3.9318538      2.3394396     -4.3208874
C       2.0847444      0.2771351      1.9260301
C       2.2586576     -0.3748804      3.1732592
C       3.2050878      0.8436342     -1.3103648
C       2.9974600      1.3947455     -2.6099743
H      -0.1562461      1.6323885      0.8262865
C       2.0889008      0.3246124     -0.5914608
C       1.6805389      1.3962209     -3.1544695
C       2.2594746     -0.3642108      0.7181379
C       2.6014366     -1.6999339      3.2005925
H       1.5275903      1.8086675     -4.1542004
H       2.7343754     -2.2151754      4.1533183
C       0.6174926      0.9003802     -2.4483032
C       0.8158724      0.3606208     -1.1426750
C       2.5910642     -1.7601847      0.7418504
C       2.7675611     -2.4273483      1.9895921
O      -0.1848567     -0.1063535     -0.4049390
H      -0.3930697      0.9112933     -2.8571120
C       2.7453252     -2.5062444     -0.4604107
C       3.1009959     -3.8093679      1.9988442
H       2.5998579     -2.0040175     -1.4176645
H       3.2352279     -4.3087167      2.9603850
C       3.0660048     -3.8425492     -0.4196625
C       3.2488384     -4.5021800      0.8214164
H       3.1767564     -4.4018951     -1.3497642
H       3.5049158     -5.5625217      0.8379362
H      -1.1945352     -0.1475443      3.2762607
C      -3.5541555     -1.5122521      1.3960666
C      -4.5740332     -0.7909279      0.7159322
C      -2.9010303      0.7046877      1.3689235
C      -1.3307571     -0.8755874      2.4625590
C      -4.1415888      0.5654111      0.5124641
N      -2.5124194     -0.5537745      1.7019284
O      -2.3213782      1.7390017      1.6745973
O      -3.4421445     -2.6813574      1.7416146
H      -5.5211901     -1.2349053      0.4231836
H      -0.4367521     -0.8700954      1.8209345
H      -4.8316448      1.4154480      0.5459995
H      -1.4708514     -1.8807875      2.8789029
          85

O      -1.6130950      2.3495534     -1.0294339
C      -2.7774126      2.0898339     -1.2441416
O      -3.7151088      3.0257060     -1.4648977
C      -3.3988881      4.3833557     -1.1538218
C      -3.7836627      4.6661046      0.2864785
C      -3.4080778      0.7524459     -1.2158748
N      -2.5847056     -0.3483729     -1.3416600
C      -3.2095040     -1.4834819     -1.4703704
C      -2.5985084     -2.8102798     -1.3302706
C      -3.3307029     -3.9296434     -1.7560081
C      -2.8242551     -5.2175220     -1.5966386
C      -1.5774041     -5.4078936     -0.9980233
C      -0.8469514     -4.3019731     -0.5579293
C      -1.3527049     -3.0144381     -0.7141785
H      -2.3304354      4.5582671     -1.3386056
H      -3.9781788      4.9948291     -1.8564017
H      -3.4703241      5.6783336      0.5800005
H      -3.3065477      3.9301685      0.9511855
H      -4.8724490      4.5879276      0.4131608
H      -1.1130620     -0.1435963     -0.8630096
H      -4.3591615      0.7287199     -1.7641615
H      -4.2548816     -1.4810054     -1.8084958
H      -4.3108480     -3.7830503     -2.2162682
H      -3.4057385     -6.0763824     -1.9360357
H      -1.1803731     -6.4160545     -0.8668133
H       0.1234266     -4.4404135     -0.0757841
H      -0.7840165     -2.1628503     -0.3421776
H       1.8292403      4.8122511      2.8121549
C       1.6531640      3.7998079      2.4622861
H       3.2992432      2.4667677      3.1675012
H      -0.0613409      5.2847591      0.8545694
C       2.3696817      2.6567175      2.6395931
H      -1.1207345      4.6298827      2.1521586
C      -0.5060225      4.3779862      1.2800612
N       0.5614741      3.4720702      1.6869159
H       6.5848923      1.3268969     -1.0773821
H       6.2149218      2.3029866     -3.3480731
C       5.5790515      1.3445476     -1.5006108
C       5.3708058      1.8977039     -2.7883737
N       1.6959921      1.6566529      1.9634099
H      -1.1098726      3.8551107      0.5315273
C       0.6015435      2.1772395      1.3942246
C       4.5261259      0.8294857     -0.7798985
C       4.1052924      1.9186135     -3.3277248
H       2.0984290      0.1851446      4.0955001
H       4.6962431      0.4046724      0.2116432
H       3.9319097      2.3393416     -4.3208828
C       2.0843182      0.2771298      1.9258342
C       2.2586433     -0.3747780      3.1730873
C       3.2048344      0.8435868     -1.3104737
C       2.9972646      1.3946595     -2.6101001
H      -0.1568605      1.6331379      0.8250810
C       2.0886382      0.3245612     -0.5916745
C       1.6803259      1.3963128     -3.1546304
C       2.2590571     -0.3642790      0.7179589
C       2.6017872     -1.6997401      3.2004934
H       1.5274228      1.8089595     -4.1542825
H       2.7351695     -2.2148331      4.1532396
C       0.6171625      0.9007783     -2.4484141
C       0.8157525      0.3608289     -1.1429192
C       2.5908252     -1.7602235      0.7417567
C       2.7677857     -2.4272349      1.9895252
O      -0.1846071     -0.1063843     -0.4047563
H      -0.3935275      0.9126327     -2.8569007
C       2.7449717     -2.5063915     -0.4604483
C       3.1016241     -3.8091554      1.9988586
H       2.5990966     -2.0043171     -1.4177191
H       3.2362662     -4.3083459      2.9604254
C       3.0660173     -3.8426066     -0.4196235
C       3.2493695     -4.5020543      0.8214729
H       3.1766435     -4.4020309     -1.3496910
H       3.5057621     -5.5623191      0.8380336
H      -1.1935214     -0.1459945      3.2733225
C      -3.5483793     -1.5125103      1.3983023
C      -4.5801046     -0.7869187      0.7258446
C      -2.9071547      0.7049515      1.3741345
C      -1.3284138     -0.8759149      2.4611598
C      -4.1629173      0.5625868      0.5492977
N      -2.5111899     -0.5563812      1.7008828
O      -2.3227726      1.7376118      1.6737660
O      -3.4415225     -2.6819177      1.7368049
H      -5.5268092     -1.2347388      0.4376986
H      -0.4345815     -0.8708114      1.8195601
H      -4.8449785      1.4178591      0.5437778
H      -1.4669713     -1.8802223      2.8801674
          85

O      -1.6068031      2.3566964     -1.0270115
C      -2.7697755      2.0897812     -1.2487957
O      -3.7123124      3.0248328     -1.4669461
C      -3.3998338      4.3818393     -1.1548443
C      -3.7839442      4.6642334      0.2857474
C      -3.3892822      0.7569661     -1.2438597
N      -2.5844027     -0.3479612     -1.3410405
C      -3.2098655     -1.4843205     -1.4730355
C      -2.5991763     -2.8103313     -1.3323841
C      -3.3305295     -3.9311454     -1.7573807
C      -2.8241078     -5.2187756     -1.5957510
C      -1.5775226     -5.4089000     -0.9963943
C      -0.8474887     -4.3020574     -0.5578687
C      -1.3530915     -3.0147915     -0.7161930
H      -2.3318999      4.5602130     -1.3397038
H      -3.9808835      4.9929709     -1.8565304
H      -3.4701983      5.6761396      0.5802937
H      -3.3066722      3.9274311      0.9494120
H      -4.8727692      4.5862232      0.4130136
H      -1.1124109     -0.1437367     -0.8627225
H      -4.3570191      0.7292527     -1.7582980
H      -4.2540024     -1.4791736     -1.8145391
H      -4.3104102     -3.7855189     -2.2185894
H      -3.4056282     -6.0780037     -1.9343307
H      -1.1806655     -6.4169055     -0.8635272
H       0.1228186     -4.4394433     -0.0751675
H      -0.7841420     -2.1630988     -0.3447998
H       1.8282230      4.8121039      2.8118722
C       1.6521712      3.7996357      2.4620626
H       3.2982707      2.4666702      3.1673974
H      -0.0616267      5.2847215      0.8543530
C       2.3687094      2.6565799      2.6394758
H      -1.1218410      4.6297650      2.1511272
C      -0.5067858      4.3778856      1.2792474
N       0.5605439      3.4718822      1.6866386
H       6.5842303      1.3270103     -1.0766829
H       6.2147660      2.3029206     -3.3475198
C       5.5784940      1.3445680     -1.5001650
C       5.3705356      1.8976259     -2.7880011
N       1.6950531      1.6564803      1.9632608
H      -1.1099530      3.8550285      0.5299804
C       0.6006352      2.1770862      1.3938593
C       4.5254197      0.8294885     -0.7796962
C       4.1051419      1.9184707     -3.3276595
H       2.0986299      0.1853520      4.0952594
H       4.6952838      0.4047431      0.2119170
H       3.9320230      2.3391936     -4.3208668
C       2.0836529      0.2770707      1.9255789
C       2.2586428     -0.3746653      3.1728629
C       3.2043143      0.8435166     -1.3106096
C       2.9969611      1.3945565     -2.6102870
H      -0.1577190      1.6336707      0.8238756
C       2.0880566      0.3244913     -0.5920269
C       1.6800757      1.3964684     -3.1550031
C       2.2582639     -0.3643945      0.7176769
C       2.6023400     -1.6994819      3.2003672
H       1.5273025      1.8093434     -4.1545818
H       2.7363680     -2.2143748      4.1531368
C       0.6167171      0.9012856     -2.4488469
C       0.8153587      0.3610779     -1.1434422
C       2.5904124     -1.7602847      0.7416220
C       2.7681263     -2.4270678      1.9894325
O      -0.1845549     -0.1063105     -0.4049294
H      -0.3940791      0.9142199     -2.8570695
C       2.7444454     -2.5066225     -0.4604907
C       3.1025748     -3.8088429      1.9988929
H       2.5979857     -2.0047611     -1.4177894
H       3.2378167     -4.3077936      2.9605062
C       3.0660528     -3.8427078     -0.4195487
C       3.2501538     -4.5018915      0.8215790
H       3.1765338     -4.4022397     -1.3495679
H       3.5069894     -5.5620500      0.8382148
H      -1.1943776     -0.1444551      3.2714177
C      -3.5426460     -1.5128899      1.3999408
C      -4.5861259     -0.7827017      0.7355697
C      -2.9127442      0.7053491      1.3787098
C      -1.3266765     -0.8761314      2.4603649
C      -4.1836160      0.5596934      0.5881087
N      -2.5097854     -0.5590939      1.6989553
O      -2.3240030      1.7367360      1.6716761
O      -3.4417811     -2.6825779      1.7312070
H      -5.5327271     -1.2340291      0.4519170
H      -0.4321115     -0.8711106      1.8199516
H      -4.8574617      1.4196597      0.5430805
H      -1.4639882     -1.8796708      2.8816512
          85

O      -1.5989740      2.3671012     -1.0269675
C      -2.7604921      2.0915249     -1.2477190
O      -3.7104270      3.0227288     -1.4713062
C      -3.4016847      4.3798208     -1.1574461
C      -3.7840714      4.6605780      0.2840605
C      -3.3682966      0.7604032     -1.2376964
N      -2.5796070     -0.3497205     -1.3434476
C      -3.2089410     -1.4851574     -1.4805251
C      -2.5998609     -2.8117944     -1.3383194
C      -3.3307786     -3.9346009     -1.7595956
C      -2.8238079     -5.2216437     -1.5939573
C      -1.5772606     -5.4101487     -0.9940130
C      -0.8486003     -4.3018543     -0.5572688
C      -1.3545125     -3.0152905     -0.7193588
H      -2.3340616      4.5605369     -1.3419513
H      -3.9836673      4.9917041     -1.8577314
H      -3.4663747      5.6706606      0.5806535
H      -3.3085096      3.9209140      0.9455898
H      -4.8729992      4.5862464      0.4125579
H      -1.1125958     -0.1477825     -0.8674939
H      -4.3498762      0.7322867     -1.7265172
H      -4.2539131     -1.4755623     -1.8198646
H      -4.3102889     -3.7908630     -2.2222039
H      -3.4049376     -6.0818906     -1.9306938
H      -1.1798068     -6.4175963     -0.8588678
H       0.1212036     -4.4375224     -0.0730118
H      -0.7860008     -2.1629082     -0.3487519
H       1.8268088      4.8119129      2.8113781
C       1.6506725      3.7994079      2.4617136
H       3.2968908      2.4666142      3.1671119
H      -0.0627613      5.2838488      0.8526660
C       2.3672576      2.6563721      2.6392612
H      -1.1240930      4.6294152      2.1486668
C      -0.5081866      4.3771179      1.2775117
N       0.5590401      3.4715892      1.6863189
H       6.5828776      1.3271503     -1.0755639
H       6.2144054      2.3027812     -3.3466701
C       5.5773296      1.3445846     -1.4995037
C       5.3699601      1.8975000     -2.7874660
N       1.6935602      1.6561411      1.9632547
H      -1.1102923      3.8537867      0.5277281
C       0.5990628      2.1767546      1.3939300
C       4.5240069      0.8294938     -0.7793563
C       4.1047570      1.9182419     -3.3275418
H       2.0989312      0.1856395      4.0949670
H       4.6936186      0.4048964      0.2123654
H       3.9318686      2.3388765     -4.3208277
C       2.0824404      0.2768285      1.9252861
C       2.2586410     -0.3745357      3.1726109
C       3.2031109      0.8433300     -1.3106827
C       2.9964369      1.3943438     -2.6105037
H      -0.1595566      1.6339162      0.8236757
C       2.0865485      0.3242319     -0.5925598
C       1.6798844      1.3967107     -3.1558506
C       2.2565818     -0.3647266      0.7172746
C       2.6032664     -1.6990898      3.2002073
H       1.5276629      1.8099597     -4.1553540
H       2.7383583     -2.2136580      4.1530004
C       0.6161808      0.9022606     -2.4499316
C       0.8141905      0.3614325     -1.1446147
C       2.5897548     -1.7604446      0.7414318
C       2.7687420     -2.4268225      1.9893149
O      -0.1861198     -0.1057169     -0.4069522
H      -0.3945879      0.9167450     -2.8581570
C       2.7437116     -2.5070527     -0.4605341
C       3.1041103     -3.8083789      1.9989928
H       2.5963969     -2.0055289     -1.4178796
H       3.2402985     -4.3069308      2.9606803
C       3.0661325     -3.8429503     -0.4193874
C       3.2513538     -4.5016998      0.8218016
H       3.1764141     -4.4026723     -1.3493156
H       3.5088306     -5.5617008      0.8385751
H      -1.2060421     -0.1396668      3.2700358
C      -3.5390949     -1.5149293      1.3962285
C      -4.5880639     -0.7794020      0.7423995
C      -2.9148716      0.7051206      1.3832278
C      -1.3305156     -0.8737944      2.4598514
C      -4.1928894      0.5591389      0.6318298
N      -2.5084426     -0.5613314      1.6923120
O      -2.3287740      1.7409896      1.6619121
O      -3.4471174     -2.6845046      1.7250886
H      -5.5330593     -1.2299757      0.4525243
H      -0.4320876     -0.8671785      1.8252332
H      -4.8571819      1.4212071      0.5547096
H      -1.4666056     -1.8766126      2.8831893
          85

O      -1.6044568      2.3631033     -1.0330861
C      -2.7653061      2.0888035     -1.2612157
O      -3.7152112      3.0223578     -1.4772005
C      -3.4034915      4.3777602     -1.1596687
C      -3.7841793      4.6576496      0.2824753
C      -3.3699166      0.7582865     -1.2686085
N      -2.5819439     -0.3510768     -1.3570763
C      -3.2099382     -1.4884103     -1.4892593
C      -2.6005709     -2.8137021     -1.3408170
C      -3.3310989     -3.9372738     -1.7608766
C      -2.8240315     -5.2239911     -1.5940831
C      -1.5775958     -5.4117639     -0.9936894
C      -0.8496021     -4.3028183     -0.5573118
C      -1.3555499     -3.0164030     -0.7207811
H      -2.3355726      4.5566298     -1.3442668
H      -3.9844083      4.9926159     -1.8583317
H      -3.4643725      5.6669726      0.5794940
H      -3.3095124      3.9164408      0.9428032
H      -4.8731685      4.5854525      0.4118491
H      -1.1125475     -0.1461292     -0.8712759
H      -4.3537901      0.7274693     -1.7517273
H      -4.2532934     -1.4812465     -1.8335190
H      -4.3103079     -3.7940628     -2.2242959
H      -3.4048478     -6.0845858     -1.9305183
H      -1.1797387     -6.4189643     -0.8579357
H       0.1201091     -4.4378624     -0.0726622
H      -0.7870290     -2.1635694     -0.3512322
H       1.8260800      4.8116927      2.8113063
C       1.6499103      3.7992003      2.4616157
H       3.2960626      2.4663078      3.1670732
H      -0.0635764      5.2832619      0.8515791
C       2.3664570      2.6561040      2.6391761
H      -1.1254717      4.6288051      2.1470649
C      -0.5089338      4.3764756      1.2763638
N       0.5583853      3.4713800      1.6860750
H       6.5822535      1.3272208     -1.0751981
H       6.2141716      2.3026800     -3.3464768
C       5.5767858      1.3446156     -1.4993293
C       5.3696528      1.8974361     -2.7873563
N       1.6928255      1.6559145      1.9630760
H      -1.1104897      3.8525593      0.5262766
C       0.5982802      2.1765263      1.3937515
C       4.5233377      0.8295061     -0.7793005
C       4.1045082      1.9181142     -3.3275610
H       2.0990017      0.1857292      4.0947992
H       4.6929249      0.4049756      0.2124566
H       3.9316896      2.3386676     -4.3208910
C       2.0818430      0.2766403      1.9251053
C       2.2585861     -0.3745136      3.1724667
C       3.2024571      0.8431894     -1.3107599
C       2.9961071      1.3942110     -2.6106218
H      -0.1607934      1.6338436      0.8236225
C       2.0855945      0.3239694     -0.5927908
C       1.6796989      1.3964650     -3.1563119
C       2.2558504     -0.3649488      0.7170818
C       2.6036263     -1.6989561      3.2001130
H       1.5276893      1.8096263     -4.1558792
H       2.7390915     -2.2133865      4.1529271
C       0.6158656      0.9019331     -2.4507198
C       0.8134082      0.3612636     -1.1453200
C       2.5895575     -1.7605518      0.7413321
C       2.7690440     -2.4267427      1.9892580
O      -0.1880761     -0.1056329     -0.4085461
H      -0.3948328      0.9162953     -2.8590907
C       2.7434233     -2.5072697     -0.4605677
C       3.1047603     -3.8082097      1.9990376
H       2.5957132     -2.0059319     -1.4179492
H       3.2413131     -4.3066004      2.9607562
C       3.0661436     -3.8430918     -0.4193193
C       3.2518552     -4.5016425      0.8218976
H       3.1762689     -4.4029140     -1.3492036
H       3.5095736     -5.5615830      0.8387303
H      -1.2190405     -0.1366037      3.2650374
C      -3.5443419     -1.5163619      1.3866169
C      -4.5936515     -0.7832846      0.7254749
C      -2.9261534      0.7041728      1.3715082
C      -1.3405090     -0.8716246      2.4553026
C      -4.2048442      0.5547836      0.6184471
N      -2.5176799     -0.5618921      1.6846739
O      -2.3402350      1.7391891      1.6531923
O      -3.4535290     -2.6849039      1.7177700
H      -5.5365648     -1.2375027      0.4343365
H      -0.4408158     -0.8641794      1.8224630
H      -4.8686125      1.4159015      0.5306573
H      -1.4758946     -1.8742576      2.8792825
          85

O      -1.6104917      2.3586974     -1.0394550
C      -2.7707208      2.0859750     -1.2744952
O      -3.7204032      3.0218310     -1.4830462
C      -3.4052915      4.3755630     -1.1618619
C      -3.7840391      4.6548132      0.2809507
C      -3.3722727      0.7557869     -1.2978370
N      -2.5842404     -0.3524665     -1.3712405
C      -3.2109828     -1.4916443     -1.4980105
C      -2.6013026     -2.8156095     -1.3432366
C      -3.3315196     -3.9398585     -1.7620760
C      -2.8243681     -5.2262654     -1.5943016
C      -1.5780560     -5.4133324     -0.9934506
C      -0.8507120     -4.3038106     -0.5572743
C      -1.3566579     -3.0175099     -0.7220382
H      -2.3370419      4.5521975     -1.3466586
H      -3.9849732      4.9935138     -1.8589091
H      -3.4616295      5.6632764      0.5781959
H      -3.3104803      3.9119624      0.9401168
H      -4.8730999      4.5852710      0.4113584
H      -1.1124480     -0.1445609     -0.8752443
H      -4.3580384      0.7222255     -1.7762049
H      -4.2528137     -1.4871055     -1.8468099
H      -4.3104217     -3.7970924     -2.2262852
H      -3.4048460     -6.0871729     -1.9305563
H      -1.1797921     -6.4203017     -0.8572136
H       0.1188872     -4.4383303     -0.0722255
H      -0.7881181     -2.1642428     -0.3535224
H       1.8252956      4.8114216      2.8115948
C       1.6491501      3.7989783      2.4617428
H       3.2951489      2.4659311      3.1673387
H      -0.0641939      5.2829948      0.8510396
C       2.3656296      2.6558064      2.6393059
H      -1.1269454      4.6279577      2.1455063
C      -0.5095319      4.3759730      1.2753244
N       0.5578375      3.4712360      1.6858759
H       6.5816411      1.3274043     -1.0748259
H       6.2139685      2.3025541     -3.3463482
C       5.5762615      1.3447342     -1.4991678
C       5.3693696      1.8973907     -2.7872892
N       1.6921549      1.6557149      1.9629136
H      -1.1103556      3.8517266      0.5246204
C       0.5976407      2.1763927      1.3934796
C       4.5226808      0.8295985     -0.7792768
C       4.1042833      1.9179907     -3.3276370
H       2.0992856      0.1858707      4.0945892
H       4.6922365      0.4051383      0.2125179
H       3.9315652      2.3384091     -4.3210396
C       2.0813810      0.2764862      1.9248708
C       2.2586689     -0.3744483      3.1722721
C       3.2018197      0.8430936     -1.3108852
C       2.9957718      1.3941373     -2.6107781
H      -0.1618226      1.6338977      0.8233642
C       2.0846898      0.3236615     -0.5930624
C       1.6794705      1.3962414     -3.1567443
C       2.2552229     -0.3651763      0.7168514
C       2.6040471     -1.6987908      3.2000148
H       1.5276004      1.8093243     -4.1563615
H       2.7398561     -2.2130561      4.1528680
C       0.6155429      0.9015607     -2.4514602
C       0.8126466      0.3610252     -1.1459951
C       2.5894171     -1.7606729      0.7412342
C       2.7694305     -2.4266469      1.9892178
O      -0.1900651     -0.1055444     -0.4101069
H      -0.3950941      0.9157652     -2.8599585
C       2.7430540     -2.5075348     -0.4605904
C       3.1055715     -3.8080001      1.9991310
H       2.5948325     -2.0064213     -1.4180101
H       3.2425719     -4.3062026      2.9608844
C       3.0661290     -3.8432649     -0.4192104
C       3.2525142     -4.5015465      0.8220442
H       3.1760389     -4.4032284     -1.3490328
H       3.5105756     -5.5614011      0.8389447
H      -1.2321608     -0.1338496      3.2603480
C      -3.5499444     -1.5177940      1.3766962
C      -4.5986671     -0.7874131      0.7074569
C      -2.9370728      0.7033216      1.3597812
C      -1.3507607     -0.8695815      2.4509267
C      -4.2156349      0.5506147      0.6032674
N      -2.5270962     -0.5622994      1.6773451
O      -2.3515723      1.7377177      1.6444340
O      -3.4602176     -2.6852934      1.7105393
H      -5.5394917     -1.2450234      0.4147182
H      -0.4498189     -0.8612649      1.8198252
H      -4.8793467      1.4106073      0.5071118
H      -1.4855403     -1.8720962      2.8753642
          85

O      -1.6175833      2.3528057     -1.0453717
C      -2.7770093      2.0830937     -1.2883990
O      -3.7267392      3.0215187     -1.4888114
C      -3.4069774      4.3734745     -1.1637416
C      -3.7835404      4.6524263      0.2796997
C      -3.3738465      0.7529630     -1.3249397
N      -2.5864160     -0.3542930     -1.3862596
C      -3.2124997     -1.4950083     -1.5065633
C      -2.6020116     -2.8173730     -1.3449353
C      -3.3319148     -3.9419716     -1.7629355
C      -2.8248388     -5.2281358     -1.5947856
C      -1.5787782     -5.4147060     -0.9933814
C      -0.8519013     -4.3048537     -0.5571896
C      -1.3576116     -3.0185171     -0.7228170
H      -2.3381320      4.5465051     -1.3484192
H      -3.9844359      4.9953161     -1.8592467
H      -3.4581597      5.6599889      0.5768851
H      -3.3112117      3.9079070      0.9377428
H      -4.8726597      4.5859021      0.4113168
H      -1.1120680     -0.1431792     -0.8791813
H      -4.3631286      0.7166552     -1.7999012
H      -4.2525968     -1.4934956     -1.8605870
H      -4.3103361     -3.7992305     -2.2281500
H      -3.4049266     -6.0891695     -1.9314058
H      -1.1801718     -6.4214990     -0.8569001
H       0.1176364     -4.4392580     -0.0719585
H      -0.7886844     -2.1650004     -0.3555013
H       1.8244820      4.8110703      2.8123296
C       1.6484427      3.7987199      2.4621475
H       3.2941958      2.4654473      3.1680176
H      -0.0644156      5.2831820      0.8513986
C       2.3648652      2.6554888      2.6396963
H      -1.1284012      4.6268085      2.1441600
C      -0.5098542      4.3756922      1.2745378
N       0.5574886      3.4711601      1.6857524
H       6.5811994      1.3275806     -1.0744583
H       6.2139457      2.3022752     -3.3463445
C       5.5758952      1.3449914     -1.4989767
C       5.3692248      1.8973931     -2.7872586
N       1.6916847      1.6555642      1.9627092
H      -1.1097311      3.8515289      0.5227670
C       0.5971428      2.1763691      1.3932023
C       4.5221274      0.8297938     -0.7793224
C       4.1042089      1.9178706     -3.3278631
H       2.0998556      0.1860013      4.0944696
H       4.6916172      0.4051586      0.2124117
H       3.9317452      2.3379360     -4.3214596
C       2.0812166      0.2763923      1.9245256
C       2.2588658     -0.3742572      3.1720072
C       3.2012607      0.8431744     -1.3111065
C       2.9954397      1.3942516     -2.6110389
H      -0.1627970      1.6340750      0.8231902
C       2.0839354      0.3232094     -0.5934407
C       1.6791203      1.3960464     -3.1570872
C       2.2548327     -0.3654384      0.7165624
C       2.6044495     -1.6985391      3.1999080
H       1.5271683      1.8090325     -4.1567288
H       2.7405044     -2.2125506      4.1528566
C       0.6151778      0.9010683     -2.4520153
C       0.8119493      0.3605722     -1.1465526
C       2.5894323     -1.7608215      0.7411376
C       2.7699057     -2.4265600      1.9892301
O      -0.1920204     -0.1055007     -0.4112887
H      -0.3954138      0.9150595     -2.8605984
C       2.7425557     -2.5078024     -0.4606646
C       3.1065187     -3.8078107      1.9993429
H       2.5935277     -2.0070038     -1.4181221
H       3.2439731     -4.3058507      2.9611133
C       3.0660316     -3.8434083     -0.4190517
C       3.2533808     -4.5013568      0.8222493
H       3.1755700     -4.4036225     -1.3487666
H       3.5118963     -5.5610998      0.8391205
H      -1.2456275     -0.1310217      3.2550039
C      -3.5556594     -1.5192465      1.3666074
C      -4.6019731     -0.7913746      0.6883497
C      -2.9468282      0.7020977      1.3478674
C      -1.3622967     -0.8673344      2.4458324
C      -4.2232593      0.5462762      0.5877600
N      -2.5378213     -0.5624742      1.6710657
O      -2.3636650      1.7364619      1.6357393
O      -3.4668156     -2.6854719      1.7038207
H      -5.5408723     -1.2512148      0.3926673
H      -0.4608511     -0.8579549      1.8154041
H      -4.8858476      1.4057015      0.4825897
H      -1.4958058     -1.8697915      2.8707170
          85

O      -1.6243478      2.3466133     -1.0502905
C      -2.7835082      2.0800306     -1.3006394
O      -3.7309662      3.0216820     -1.4921435
C      -3.4081377      4.3721426     -1.1649889
C      -3.7834193      4.6511035      0.2787220
C      -3.3821519      0.7504243     -1.3592682
N      -2.5905061     -0.3547424     -1.3951325
C      -3.2135977     -1.4973442     -1.5113843
C      -2.6023999     -2.8184086     -1.3452805
C      -3.3319802     -3.9431200     -1.7634532
C      -2.8252136     -5.2290889     -1.5955575
C      -1.5794829     -5.4155449     -0.9936870
C      -0.8527066     -4.3057447     -0.5574219
C      -1.3581120     -3.0193571     -0.7233026
H      -2.3390809      4.5435777     -1.3499170
H      -3.9849588      4.9959795     -1.8593627
H      -3.4572220      5.6584578      0.5759188
H      -3.3113032      3.9060231      0.9362793
H      -4.8724884      4.5852362      0.4110496
H      -1.1123505     -0.1406288     -0.8793886
H      -4.3671006      0.7110948     -1.8370966
H      -4.2513955     -1.4990252     -1.8719390
H      -4.3101124     -3.8001680     -2.2292139
H      -3.4053439     -6.0899355     -1.9325579
H      -1.1812255     -6.4223903     -0.8567816
H       0.1169221     -4.4400702     -0.0724600
H      -0.7888973     -2.1657679     -0.3567749
H       1.8241941      4.8110632      2.8123457
C       1.6481248      3.7985875      2.4624141
H       3.2933766      2.4646803      3.1686376
H      -0.0645598      5.2834599      0.8516697
C       2.3644135      2.6552678      2.6398467
H      -1.1291186      4.6261298      2.1435763
C      -0.5098932      4.3756492      1.2742533
N       0.5574107      3.4710197      1.6856029
H       6.5813692      1.3272258     -1.0744165
H       6.2141464      2.3018388     -3.3466497
C       5.5759661      1.3451345     -1.4987089
C       5.3693046      1.8975121     -2.7873681
N       1.6915378      1.6555857      1.9624599
H      -1.1094362      3.8516236      0.5218621
C       0.5968585      2.1761534      1.3929695
C       4.5220233      0.8298392     -0.7793032
C       4.1042869      1.9178451     -3.3282061
H       2.0999704      0.1860070      4.0944716
H       4.6909889      0.4046357      0.2122621
H       3.9316513      2.3376305     -4.3218676
C       2.0812513      0.2764388      1.9243356
C       2.2589023     -0.3741097      3.1719068
C       3.2009867      0.8433615     -1.3112214
C       2.9951732      1.3942862     -2.6112490
H      -0.1628579      1.6335552      0.8227236
C       2.0837233      0.3229285     -0.5936791
C       1.6788317      1.3959001     -3.1572837
C       2.2547099     -0.3656060      0.7164086
C       2.6045259     -1.6984189      3.1998601
H       1.5269387      1.8086259     -4.1570529
H       2.7409363     -2.2123136      4.1528241
C       0.6148576      0.9005101     -2.4522587
C       0.8116177      0.3600537     -1.1468974
C       2.5895553     -1.7609064      0.7410599
C       2.7700788     -2.4265837      1.9892734
O      -0.1929834     -0.1056757     -0.4115592
H      -0.3956129      0.9133320     -2.8612049
C       2.7423454     -2.5078575     -0.4608785
C       3.1068718     -3.8078643      1.9995326
H       2.5924749     -2.0074806     -1.4184282
H       3.2446090     -4.3059943      2.9612026
C       3.0659526     -3.8433677     -0.4189258
C       3.2537938     -4.5012637      0.8223640
H       3.1750563     -4.4037434     -1.3485919
H       3.5123806     -5.5609910      0.8386445
H      -1.2512217     -0.1306587      3.2512874
C      -3.5611385     -1.5194172      1.3608930
C      -4.6079016     -0.7955329      0.6735122
C      -2.9570519      0.7017336      1.3372094
C      -1.3683593     -0.8671349      2.4425571
C      -4.2328026      0.5428674      0.5605517
N      -2.5458328     -0.5623413      1.6676574
O      -2.3708352      1.7327494      1.6325322
O      -3.4696694     -2.6853958      1.6987372
H      -5.5444903     -1.2603965      0.3784629
H      -0.4676962     -0.8573529      1.8109024
H      -4.8983389      1.4002202      0.4552266
H      -1.5016172     -1.8695103      2.8676844
          85

O      -1.6311543      2.3400858     -1.0554269
C      -2.7901487      2.0770271     -1.3132322
O      -3.7343654      3.0221351     -1.4956555
C      -3.4088303      4.3712030     -1.1659711
C      -3.7841758      4.6496469      0.2778615
C      -3.3901498      0.7480702     -1.3937694
N      -2.5952667     -0.3545472     -1.4058071
C      -3.2143192     -1.4998173     -1.5160810
C      -2.6027368     -2.8193830     -1.3453278
C      -3.3321330     -3.9442522     -1.7640139
C      -2.8253066     -5.2302649     -1.5961089
C      -1.5794649     -5.4167800     -0.9941333
C      -0.8527445     -4.3065980     -0.5578469
C      -1.3582788     -3.0201201     -0.7236842
H      -2.3396708      4.5416010     -1.3514308
H      -3.9852342      4.9963261     -1.8596147
H      -3.4591013      5.6574805      0.5744939
H      -3.3115729      3.9050113      0.9354581
H      -4.8732567      4.5829961      0.4099411
H      -1.1119128     -0.1362674     -0.8806394
H      -4.3773122      0.7069724     -1.8701112
H      -4.2506410     -1.5057940     -1.8807240
H      -4.3103779     -3.8014448     -2.2295855
H      -3.4052930     -6.0912471     -1.9331000
H      -1.1807839     -6.4235416     -0.8576655
H       0.1169963     -4.4407717     -0.0729413
H      -0.7889826     -2.1663068     -0.3577516
H       1.8241214      4.8109053      2.8119266
C       1.6480434      3.7985310      2.4618219
H       3.2937272      2.4650899      3.1677017
H      -0.0651889      5.2824592      0.8501098
C       2.3643968      2.6552272      2.6393953
H      -1.1290247      4.6264230      2.1431638
C      -0.5104068      4.3750589      1.2736586
N       0.5571205      3.4708540      1.6854244
H       6.5809990      1.3274688     -1.0744936
H       6.2137725      2.3022278     -3.3464008
C       5.5757135      1.3448975     -1.4990472
C       5.3690692      1.8973172     -2.7873101
N       1.6912095      1.6553424      1.9623979
H      -1.1104031      3.8501184      0.5220802
C       0.5966447      2.1760446      1.3927499
C       4.5218942      0.8296959     -0.7793941
C       4.1040438      1.9177731     -3.3278837
H       2.0996304      0.1858657      4.0943874
H       4.6914677      0.4051063      0.2123472
H       3.9315615      2.3378533     -4.3214641
C       2.0808346      0.2761995      1.9244276
C       2.2586088     -0.3743914      3.1719259
C       3.2009573      0.8430110     -1.3111735
C       2.9952225      1.3940962     -2.6110752
H      -0.1635489      1.6336479      0.8227089
C       2.0833170      0.3230404     -0.5934722
C       1.6789317      1.3954719     -3.1573334
C       2.2546028     -0.3655615      0.7164973
C       2.6043451     -1.6986401      3.1998448
H       1.5270490      1.8080532     -4.1571484
H       2.7403832     -2.2126495      4.1527964
C       0.6149308      0.8998853     -2.4527084
C       0.8114581      0.3601569     -1.1470361
C       2.5894024     -1.7608762      0.7410800
C       2.7698750     -2.4266012      1.9891735
O      -0.1939190     -0.1058621     -0.4123896
H      -0.3955616      0.9126746     -2.8615717
C       2.7425930     -2.5078285     -0.4607003
C       3.1064233     -3.8078470      1.9992764
H       2.5936165     -2.0070697     -1.4181831
H       3.2438031     -4.3058956      2.9610491
C       3.0660275     -3.8434373     -0.4191018
C       3.2532684     -4.5014033      0.8221924
H       3.1755699     -4.4036260     -1.3488277
H       3.5117008     -5.5611635      0.8390830
H      -1.2567543     -0.1296724      3.2474440
C      -3.5665209     -1.5198768      1.3546249
C      -4.6139596     -0.7998906      0.6586478
C      -2.9664472      0.7010847      1.3257525
C      -1.3740760     -0.8660539      2.4388187
C      -4.2447281      0.5390991      0.5352286
N      -2.5534034     -0.5623464      1.6627336
O      -2.3783966      1.7289135      1.6292631
O      -3.4726418     -2.6850703      1.6944015
H      -5.5492686     -1.2700346      0.3669367
H      -0.4734750     -0.8570238      1.8069944
H      -4.9119409      1.3953836      0.4317626
H      -1.5076364     -1.8684691      2.8638397
          85

O      -1.6380746      2.3333642     -1.0613814
C      -2.7964350      2.0739845     -1.3271029
O      -3.7393153      3.0225521     -1.5011767
C      -3.4097229      4.3696916     -1.1671953
C      -3.7853174      4.6474424      0.2767240
C      -3.3937750      0.7461750     -1.4248199
N      -2.5990131     -0.3552894     -1.4206079
C      -3.2159632     -1.5027727     -1.5236832
C      -2.6030522     -2.8207274     -1.3464483
C      -3.3320352     -3.9462426     -1.7642600
C      -2.8250181     -5.2320069     -1.5962979
C      -1.5790167     -5.4181002     -0.9945504
C      -0.8528326     -4.3074879     -0.5582969
C      -1.3585913     -3.0209916     -0.7243485
H      -2.3398567      4.5371332     -1.3513041
H      -3.9834575      4.9984376     -1.8598761
H      -3.4606980      5.6554504      0.5733552
H      -3.3128650      3.9027318      0.9342216
H      -4.8744522      4.5806165      0.4084379
H      -1.1116808     -0.1335103     -0.8845384
H      -4.3794871      0.7024771     -1.8989772
H      -4.2510419     -1.5129613     -1.8917267
H      -4.3101479     -3.8037875     -2.2302340
H      -3.4047751     -6.0931206     -1.9333897
H      -1.1797687     -6.4246718     -0.8583751
H       0.1171112     -4.4413022     -0.0736610
H      -0.7890342     -2.1669468     -0.3593785
H       1.8242449      4.8110341      2.8105285
C       1.6479239      3.7985545      2.4608478
H       3.2938660      2.4652346      3.1664679
H      -0.0666591      5.2806812      0.8468439
C       2.3642846      2.6552227      2.6385377
H      -1.1291050      4.6270370      2.1422011
C      -0.5113141      4.3740394      1.2725868
N       0.5566637      3.4706018      1.6850345
H       6.5807743      1.3270555     -1.0746083
H       6.2134955      2.3022852     -3.3462873
C       5.5754796      1.3445120     -1.4991349
C       5.3688428      1.8971785     -2.7872681
N       1.6906857      1.6550995      1.9623473
H      -1.1120703      3.8474677      0.5225286
C       0.5959359      2.1756757      1.3929034
C       4.5216776      0.8293501     -0.7793420
C       4.1037860      1.9177206     -3.3276651
H       2.0991134      0.1854924      4.0945744
H       4.6914222      0.4048810      0.2124255
H       3.9310753      2.3380267     -4.3211042
C       2.0802161      0.2759152      1.9245950
C       2.2580721     -0.3747035      3.1720768
C       3.2006567      0.8426758     -1.3109751
C       2.9951425      1.3937500     -2.6108797
H      -0.1648877      1.6332467      0.8234547
C       2.0826387      0.3230127     -0.5932676
C       1.6790936      1.3949977     -3.1575720
C       2.2540859     -0.3656907      0.7166108
C       2.6039160     -1.6989343      3.1998444
H       1.5275465      1.8073713     -4.1575153
H       2.7399123     -2.2130710      4.1527323
C       0.6149532      0.8994906     -2.4532653
C       0.8110037      0.3602223     -1.1474388
C       2.5892620     -1.7609013      0.7410443
C       2.7694959     -2.4267302      1.9890890
O      -0.1957811     -0.1057648     -0.4140889
H      -0.3954945      0.9120125     -2.8622129
C       2.7430101     -2.5076880     -0.4607593
C       3.1056516     -3.8080545      1.9990707
H       2.5946441     -2.0067511     -1.4182400
H       3.2426375     -4.3062319      2.9608299
C       3.0661215     -3.8433802     -0.4192838
C       3.2525114     -4.5016038      0.8219864
H       3.1759441     -4.4033956     -1.3490757
H       3.5104850     -5.5614736      0.8388906
H      -1.2686676     -0.1257639      3.2407495
C      -3.5715283     -1.5212774      1.3456383
C      -4.6185581     -0.8041796      0.6420343
C      -2.9771905      0.6998393      1.3135678
C      -1.3835790     -0.8633866      2.4330396
C      -4.2543577      0.5346701      0.5207909
N      -2.5623826     -0.5627751      1.6546127
O      -2.3898841      1.7265943      1.6216120
O      -3.4782391     -2.6850383      1.6891920
H      -5.5520593     -1.2771517      0.3492568
H      -0.4821739     -0.8538043      1.8023795
H      -4.9215983      1.3894282      0.4067988
H      -1.5161871     -1.8654309      2.8591673
          85

O      -1.6443873      2.3276967     -1.0673737
C      -2.8020129      2.0709482     -1.3407496
O      -3.7440181      3.0224234     -1.5069697
C      -3.4108351      4.3676818     -1.1687582
C      -3.7864702      4.6447935      0.2753173
C      -3.3960040      0.7442429     -1.4564529
N      -2.6023547     -0.3561341     -1.4346706
C      -3.2171942     -1.5056965     -1.5320603
C      -2.6034730     -2.8221446     -1.3483212
C      -3.3320249     -3.9485316     -1.7648032
C      -2.8247281     -5.2339811     -1.5963454
C      -1.5785772     -5.4194369     -0.9947341
C      -0.8531313     -4.3081934     -0.5586925
C      -1.3591461     -3.0217934     -0.7254838
H      -2.3403414      4.5324970     -1.3515946
H      -3.9821233      4.9998583     -1.8604539
H      -3.4613791      5.6526359      0.5721043
H      -3.3146909      3.8995268      0.9325398
H      -4.8757037      4.5787455      0.4067966
H      -1.1116200     -0.1310683     -0.8883756
H      -4.3834635      0.6977389     -1.9259571
H      -4.2508474     -1.5194174     -1.9040112
H      -4.3099994     -3.8066617     -2.2312516
H      -3.4042337     -6.0953504     -1.9332600
H      -1.1786989     -6.4257488     -0.8585317
H       0.1169289     -4.4413837     -0.0740826
H      -0.7894171     -2.1674257     -0.3615516
H       1.8242269      4.8111627      2.8090144
C       1.6476571      3.7985509      2.4598366
H       3.2938105      2.4653541      3.1653300
H      -0.0680503      5.2789461      0.8436637
C       2.3640139      2.6551985      2.6377140
H      -1.1293687      4.6275726      2.1410538
C      -0.5122677      4.3730299      1.2714004
N       0.5560742      3.4702850      1.6845985
H       6.5804655      1.3265473     -1.0745331
H       6.2133322      2.3021961     -3.3460765
C       5.5751826      1.3441580     -1.4990811
C       5.3686604      1.8970253     -2.7871337
N       1.6900490      1.6548314      1.9622877
H      -1.1136638      3.8449537      0.5226817
C       0.5950635      2.1752167      1.3930904
C       4.5213085      0.8290250     -0.7792744
C       4.1036134      1.9176063     -3.3275049
H       2.0986746      0.1852090      4.0946785
H       4.6911477      0.4045124      0.2124629
H       3.9308252      2.3379932     -4.3208928
C       2.0795727      0.2756382      1.9246791
C       2.2575731     -0.3749601      3.1721567
C       3.2002142      0.8424295     -1.3108397
C       2.9950049      1.3934921     -2.6107853
H      -0.1663021      1.6327386      0.8241335
C       2.0818124      0.3228799     -0.5932247
C       1.6791629      1.3946254     -3.1579126
C       2.2534400     -0.3658725      0.7166384
C       2.6035052     -1.6991782      3.1998206
H       1.5279343      1.8068186     -4.1579723
H       2.7394957     -2.2133830      4.1526727
C       0.6148535      0.8991742     -2.4539466
C       0.8103873      0.3601986     -1.1480069
C       2.5890902     -1.7609668      0.7409924
C       2.7691563     -2.4268796      1.9890204
O      -0.1977626     -0.1056238     -0.4158604
H      -0.3955307      0.9115267     -2.8630364
C       2.7432791     -2.5075802     -0.4608544
C       3.1050263     -3.8082708      1.9989363
H       2.5952769     -2.0065357     -1.4183327
H       3.2416821     -4.3065755      2.9606751
C       3.0661754     -3.8433208     -0.4194327
C       3.2519454     -4.5017479      0.8218179
H       3.1762099     -4.4032344     -1.3492589
H       3.5095739     -5.5617014      0.8386781
H      -1.2808634     -0.1217877      3.2342563
C      -3.5766196     -1.5227991      1.3365875
C      -4.6238507     -0.8082382      0.6259623
C      -2.9882289      0.6987706      1.3019369
C      -1.3929794     -0.8607879      2.4275057
C      -4.2656645      0.5302501      0.5072356
N      -2.5711370     -0.5633766      1.6463027
O      -2.4016002      1.7247597      1.6132532
O      -3.4842322     -2.6853506      1.6831302
H      -5.5551420     -1.2846916      0.3315882
H      -0.4905344     -0.8506835      1.7983383
H      -4.9320675      1.3838400      0.3828833
H      -1.5247024     -1.8623963      2.8549090
          85

O      -1.6504156      2.3224872     -1.0733976
C      -2.8071853      2.0678934     -1.3544651
O      -3.7485833      3.0219969     -1.5128139
C      -3.4120968      4.3654261     -1.1705444
C      -3.7875812      4.6419234      0.2737394
C      -3.3975774      0.7424565     -1.4887416
N      -2.6056775     -0.3570156     -1.4485099
C      -3.2183039     -1.5085971     -1.5407840
C      -2.6039327     -2.8235639     -1.3505210
C      -3.3320440     -3.9509013     -1.7655686
C      -2.8244823     -5.2360175     -1.5963406
C      -1.5782261     -5.4207671     -0.9947398
C      -0.8535412     -4.3088241     -0.5590572
C      -1.3597748     -3.0225567     -0.7268684
H      -2.3410587      4.5278884     -1.3522924
H      -3.9812062      5.0008464     -1.8611843
H      -3.4616592      5.6494653      0.5707470
H      -3.3166287      3.8959117      0.9305799
H      -4.8769195      4.5769990      0.4051036
H      -1.1115983     -0.1286485     -0.8920599
H      -4.3872708      0.6932437     -1.9523793
H      -4.2504697     -1.5257219     -1.9167736
H      -4.3098510     -3.8097019     -2.2325833
H      -3.4037280     -6.0976966     -1.9329593
H      -1.1777515     -6.4268023     -0.8582881
H       0.1165883     -4.4413023     -0.0743559
H      -0.7898940     -2.1678299     -0.3640356
H       1.8240770      4.8112594      2.8075504
C       1.6472829      3.7985173      2.4588577
H       3.2936353      2.4654536      3.1642645
H      -0.0693526      5.2773150      0.8406842
C       2.3636401      2.6551517      2.6369331
H      -1.1297773      4.6280181      2.1398053
C      -0.5132282      4.3720642      1.2701747
N       0.5554096      3.4699452      1.6841503
H       6.5800766      1.3260746     -1.0743251
H       6.2132074      2.3020440     -3.3458019
C       5.5748293      1.3438336     -1.4989510
C       5.3684840      1.8968510     -2.7869538
N       1.6893555      1.6545526      1.9622067
H      -1.1151481      3.8426395      0.5226034
C       0.5941439      2.1747433      1.3932321
C       4.5208435      0.8287316     -0.7791961
C       4.1034700      1.9174662     -3.3273693
H       2.0982925      0.1849857      4.0947143
H       4.6907198      0.4041659      0.2125160
H       3.9306811      2.3378904     -4.3207382
C       2.0789214      0.2753688      1.9247007
C       2.2571172     -0.3751804      3.1721809
C       3.1997073      0.8422097     -1.3107612
C       2.9948317      1.3932763     -2.6107483
H      -0.1676921      1.6322297      0.8246725
C       2.0809384      0.3227116     -0.5932692
C       1.6791818      1.3943162     -3.1583006
C       2.2527444     -0.3660686      0.7166050
C       2.6031483     -1.6993797      3.1997787
H       1.5282561      1.8063663     -4.1584595
H       2.7391656     -2.2136185      4.1526085
C       0.6146952      0.8988917     -2.4546870
C       0.8097275      0.3601574     -1.1486469
C       2.5888758     -1.7610488      0.7409262
C       2.7688583     -2.4270123      1.9889498
O      -0.1997234     -0.1054751     -0.4176026
H      -0.3956291      0.9111355     -2.8639135
C       2.7434344     -2.5075217     -0.4609497
C       3.1045398     -3.8084472      1.9988263
H       2.5956827     -2.0064106     -1.4184297
H       3.2409524     -4.3068453      2.9605501
C       3.0662155     -3.8432852     -0.4195582
C       3.2515250     -4.5018593      0.8216792
H       3.1764460     -4.4031195     -1.3494066
H       3.5089167     -5.5618700      0.8385027
H      -1.2928629     -0.1179872      3.2278926
C      -3.5816911     -1.5242684      1.3276279
C      -4.6296232     -0.8121691      0.6105004
C      -2.9993914      0.6977525      1.2906274
C      -1.4022302     -0.8583570      2.4221163
C      -4.2777761      0.5258729      0.4944647
N      -2.5798359     -0.5640153      1.6381213
O      -2.4132024      1.7229315      1.6048390
O      -3.4902504     -2.6857609      1.6765507
H      -5.5584684     -1.2924792      0.3144563
H      -0.4987680     -0.8477957      1.7944169
H      -4.9430330      1.3783630      0.3591232
H      -1.5331463     -1.8595146      2.8508024
          85

O      -1.6432900      2.3304697     -1.0728365
C      -2.7988156      2.0689463     -1.3529214
O      -3.7468171      3.0199601     -1.5171202
C      -3.4128846      4.3630188     -1.1722575
C      -3.7898701      4.6383245      0.2719885
C      -3.3780965      0.7458336     -1.4802795
N      -2.6012869     -0.3585523     -1.4511662
C      -3.2175733     -1.5091618     -1.5483100
C      -2.6040457     -2.8243479     -1.3560708
C      -3.3317254     -3.9537937     -1.7667505
C      -2.8231356     -5.2381976     -1.5942249
C      -1.5764000     -5.4211053     -0.9930919
C      -0.8533244     -4.3075909     -0.5591375
C      -1.3603397     -3.0220953     -0.7300535
H      -2.3414169      4.5261146     -1.3509155
H      -3.9801527      5.0002410     -1.8628587
H      -3.4618894      5.6446926      0.5709197
H      -3.3210945      3.8905196      0.9282517
H      -4.8795157      4.5758194      0.4022862
H      -1.1119050     -0.1320160     -0.8972818
H      -4.3767955      0.6962091     -1.9231057
H      -4.2510481     -1.5224957     -1.9208771
H      -4.3095013     -3.8146592     -2.2345062
H      -3.4019836     -6.1009483     -1.9288712
H      -1.1747914     -6.4264740     -0.8551226
H       0.1166192     -4.4381833     -0.0734608
H      -0.7908677     -2.1666563     -0.3681481
H       1.8240210      4.8117816      2.8039960
C       1.6467006      3.7986871      2.4565833
H       3.2937677      2.4663066      3.1617056
H      -0.0715156      5.2741355      0.8347495
C       2.3631892      2.6554330      2.6351873
H      -1.1298646      4.6300114      2.1381028
C      -0.5150589      4.3705669      1.2682328
N       0.5539546      3.4693916      1.6833930
H       6.5792244      1.3250361     -1.0734439
H       6.2132106      2.3016461     -3.3447644
C       5.5740935      1.3430713     -1.4983414
C       5.3682818      1.8964095     -2.7862600
N       1.6880297      1.6541163      1.9623847
H      -1.1182829      3.8387458      0.5233747
C       0.5922669      2.1738866      1.3940586
C       4.5198424      0.8280950     -0.7788119
C       4.1034127      1.9171929     -3.3269390
H       2.0976274      0.1846255      4.0948053
H       4.6895529      0.4034329      0.2128911
H       3.9307615      2.3377597     -4.3202721
C       2.0776443      0.2749504      1.9247984
C       2.2562478     -0.3755733      3.1722514
C       3.1988072      0.8418643     -1.3105441
C       2.9946893      1.3929573     -2.6106633
H      -0.1702723      1.6315155      0.8262292
C       2.0795904      0.3226301     -0.5934546
C       1.6794670      1.3945312     -3.1590026
C       2.2511731     -0.3663524      0.7165012
C       2.6023645     -1.6997538      3.1997191
H       1.5292662      1.8068863     -4.1591391
H       2.7385629     -2.2140553      4.1524904
C       0.6145584      0.9000176     -2.4556922
C       0.8087547      0.3607690     -1.1496869
C       2.5881502     -1.7611800      0.7407967
C       2.7680392     -2.4272742      1.9887966
O      -0.2013892     -0.1046647     -0.4199933
H      -0.3957073      0.9137953     -2.8649822
C       2.7436200     -2.5073963     -0.4611293
C       3.1034639     -3.8087843      1.9985891
H       2.5964281     -2.0060616     -1.4185793
H       3.2394490     -4.3073485      2.9602906
C       3.0663255     -3.8431838     -0.4198206
C       3.2506837     -4.5020706      0.8213950
H       3.1771236     -4.4028180     -1.3497221
H       3.5077137     -5.5621716      0.8381585
H      -1.3025340     -0.1115602      3.2239089
C      -3.5777437     -1.5264515      1.3247954
C      -4.6307258     -0.8086842      0.6191110
C      -3.0013086      0.6973814      1.2951317
C      -1.4049943     -0.8552576      2.4199310
C      -4.2840523      0.5254109      0.5400322
N      -2.5777750     -0.5660466      1.6307050
O      -2.4188559      1.7276384      1.5952045
O      -3.4951369     -2.6875761      1.6723561
H      -5.5582560     -1.2869750      0.3160902
H      -0.4982157     -0.8440078      1.7972914
H      -4.9403361      1.3795339      0.3704706
H      -1.5344518     -1.8551846      2.8519211
          85

O      -1.6313385      2.3414442     -1.0683761
C      -2.7854483      2.0718078     -1.3494384
O      -3.7372773      3.0187135     -1.5220547
C      -3.4131157      4.3626621     -1.1753755
C      -3.7950858      4.6331525      0.2685951
C      -3.3663521      0.7502480     -1.4778740
N      -2.5978507     -0.3599677     -1.4442952
C      -3.2137869     -1.5089442     -1.5553675
C      -2.6029636     -2.8250705     -1.3633877
C      -3.3303502     -3.9565769     -1.7700446
C      -2.8213145     -5.2402684     -1.5914471
C      -1.5746917     -5.4208914     -0.9892479
C      -0.8519524     -4.3053450     -0.5600072
C      -1.3592484     -3.0209674     -0.7366176
H      -2.3423132      4.5334400     -1.3511736
H      -3.9829430      4.9972984     -1.8662159
H      -3.4703357      5.6393111      0.5717669
H      -3.3262963      3.8846427      0.9240636
H      -4.8849412      4.5675781      0.3957322
H      -1.1130598     -0.1348980     -0.8968447
H      -4.3684506      0.7053781     -1.9129971
H      -4.2487811     -1.5173992     -1.9246730
H      -4.3082575     -3.8200510     -2.2383237
H      -3.4001725     -6.1045438     -1.9221862
H      -1.1732588     -6.4256845     -0.8466269
H       0.1177773     -4.4332991     -0.0731991
H      -0.7902847     -2.1642697     -0.3770404
H       1.8232789      4.8126674      2.7971566
C       1.6452479      3.7989039      2.4520603
H       3.2934331      2.4677245      3.1569263
H      -0.0743257      5.2702395      0.8271953
C       2.3619461      2.6559387      2.6316858
H      -1.1297772      4.6332384      2.1363146
C      -0.5179981      4.3691349      1.2657055
N       0.5510250      3.4682352      1.6815236
H       6.5781769      1.3231027     -1.0713817
H       6.2138190      2.3004333     -3.3426111
C       5.5732887      1.3416282     -1.4968316
C       5.3684130      1.8953404     -2.7847258
N       1.6854087      1.6534056      1.9620413
H      -1.1236555      3.8352480      0.5244654
C       0.5888241      2.1722242      1.3944771
C       4.5184510      0.8269704     -0.7780114
C       4.1038947      1.9166368     -3.3262164
H       2.0959275      0.1840646      4.0944914
H       4.6873442      0.4020599      0.2137192
H       3.9320133      2.3374784     -4.3195680
C       2.0753690      0.2743584      1.9245222
C       2.2543086     -0.3762002      3.1719318
C       3.1978217      0.8414973     -1.3105106
C       2.9945697      1.3927361     -2.6107215
H      -0.1738235      1.6292284      0.8274740
C       2.0782622      0.3227421     -0.5940023
C       1.6796292      1.3952624     -3.1597519
C       2.2490490     -0.3666413      0.7160307
C       2.6004110     -1.7003934      3.1993435
H       1.5301717      1.8080259     -4.1598335
H       2.7367810     -2.2147649      4.1520547
C       0.6141148      0.9014914     -2.4568162
C       0.8077922      0.3616174     -1.1508535
C       2.5865262     -1.7613889      0.7403457
C       2.7660031     -2.4277506      1.9883110
O      -0.2015349     -0.1040949     -0.4208443
H      -0.3959938      0.9164748     -2.8665110
C       2.7433788     -2.5072378     -0.4616222
C       3.1012313     -3.8093224      1.9979984
H       2.5970436     -2.0056140     -1.4190557
H       3.2365006     -4.3081222      2.9596805
C       3.0663057     -3.8429808     -0.4204306
C       3.2492875     -4.5023264      0.8207431
H       3.1782257     -4.4022551     -1.3504161
H       3.5061503     -5.5624706      0.8374156
H      -1.2973385     -0.1084216      3.2185161
C      -3.5763392     -1.5271569      1.3285614
C      -4.6418079     -0.8046301      0.6436794
C      -3.0033423      0.6974013      1.3040869
C      -1.3997130     -0.8550648      2.4173252
C      -4.2978663      0.5284156      0.5698030
N      -2.5731812     -0.5674991      1.6281870
O      -2.4180855      1.7286583      1.5943569
O      -3.4917582     -2.6909343      1.6657585
H      -5.5665111     -1.2855855      0.3357410
H      -0.4931725     -0.8459950      1.7945982
H      -4.9469943      1.3825711      0.3967051
H      -1.5290878     -1.8534360      2.8530027
          85

O      -1.6250667      2.3456200     -1.0622189
C      -2.7772201      2.0717729     -1.3537861
O      -3.7312325      3.0196636     -1.5271611
C      -3.4114947      4.3624056     -1.1762264
C      -3.7988734      4.6302574      0.2668476
C      -3.3513712      0.7547056     -1.5038492
N      -2.5977250     -0.3597526     -1.4444480
C      -3.2124304     -1.5098884     -1.5594458
C      -2.6018109     -2.8248197     -1.3658695
C      -3.3288188     -3.9575143     -1.7711380
C      -2.8201789     -5.2409110     -1.5898557
C      -1.5738485     -5.4212901     -0.9869224
C      -0.8504955     -4.3048332     -0.5610393
C      -1.3570820     -3.0207418     -0.7404686
H      -2.3404501      4.5366766     -1.3476003
H      -3.9802813      4.9978975     -1.8673835
H      -3.4790135      5.6372501      0.5724876
H      -3.3293159      3.8827370      0.9228806
H      -4.8888910      4.5603456      0.3904987
H      -1.1122344     -0.1345499     -0.8960362
H      -4.3652987      0.7082614     -1.9126839
H      -4.2473464     -1.5170623     -1.9293781
H      -4.3065837     -3.8218268     -2.2399815
H      -3.3994301     -6.1055157     -1.9191233
H      -1.1730824     -6.4259524     -0.8417629
H       0.1195420     -4.4317569     -0.0745088
H      -0.7868489     -2.1639535     -0.3833232
H       1.8226424      4.8130938      2.7931091
C       1.6441949      3.7990343      2.4491283
H       3.2928599      2.4682948      3.1537249
H      -0.0761897      5.2687777      0.8237802
C       2.3609125      2.6561659      2.6291921
H      -1.1299515      4.6348706      2.1355331
C      -0.5199459      4.3687502      1.2643318
N       0.5491660      3.4678162      1.6800461
H       6.5779767      1.3219270     -1.0702341
H       6.2143832      2.2994815     -3.3414621
C       5.5732007      1.3407178     -1.4959336
C       5.3687259      1.8945576     -2.7838329
N       1.6835524      1.6530775      1.9612223
H      -1.1267891      3.8339569      0.5246662
C       0.5865530      2.1715921      1.3940105
C       4.5180306      0.8262873     -0.7775077
C       4.1043683      1.9162637     -3.3257479
H       2.0940344      0.1837250      4.0940602
H       4.6864026      0.4012279      0.2142451
H       3.9329875      2.3372751     -4.3191134
C       2.0737887      0.2740915      1.9240880
C       2.2524875     -0.3765372      3.1715062
C       3.1976544      0.8412934     -1.3104793
C       2.9946423      1.3926554     -2.6106533
H      -0.1762467      1.6289869      0.8268243
C       2.0779812      0.3227571     -0.5942585
C       1.6796603      1.3957086     -3.1597243
C       2.2481631     -0.3668354      0.7156737
C       2.5985578     -1.7007697      3.1989160
H       1.5303556      1.8087860     -4.1596968
H       2.7347994     -2.2151754      4.1516306
C       0.6138682      0.9023510     -2.4568418
C       0.8076862      0.3620883     -1.1510957
C       2.5855205     -1.7615800      0.7399250
C       2.7644021     -2.4280952      1.9878852
O      -0.2010824     -0.1041271     -0.4206236
H      -0.3963462      0.9183269     -2.8663225
C       2.7430191     -2.5071930     -0.4621002
C       3.0995570     -3.8096886      1.9975061
H       2.5971423     -2.0054009     -1.4195123
H       3.2343357     -4.3086659      2.9591649
C       3.0660541     -3.8429032     -0.4209651
C       3.2483141     -4.5024602      0.8202002
H       3.1785456     -4.4020090     -1.3509791
H       3.5052057     -5.5625984      0.8368228
H      -1.2880537     -0.1070218      3.2111320
C      -3.5720046     -1.5269246      1.3334410
C      -4.6508350     -0.7996443      0.6613932
C      -3.0083925      0.6980101      1.3119747
C      -1.3946336     -0.8564138      2.4131677
C      -4.3164658      0.5281303      0.6048471
N      -2.5723357     -0.5693231      1.6293584
O      -2.4185763      1.7271203      1.5976029
O      -3.4883194     -2.6922337      1.6601133
H      -5.5738926     -1.2839878      0.3536712
H      -0.4913823     -0.8503801      1.7859965
H      -4.9561258      1.3845656      0.3970165
H      -1.5227925     -1.8530177      2.8532088
          85

O      -1.6199915      2.3482953     -1.0553139
C      -2.7694363      2.0722009     -1.3598009
O      -3.7243390      3.0213811     -1.5348722
C      -3.4082435      4.3623300     -1.1769370
C      -3.8028020      4.6261500      0.2651081
C      -3.3397987      0.7591778     -1.5304332
N      -2.5971922     -0.3596634     -1.4484428
C      -3.2100815     -1.5104236     -1.5660346
C      -2.6002745     -2.8246737     -1.3682468
C      -3.3274803     -3.9584834     -1.7711317
C      -2.8192132     -5.2417326     -1.5877703
C      -1.5727950     -5.4219827     -0.9849536
C      -0.8487856     -4.3047237     -0.5621709
C      -1.3546042     -3.0207417     -0.7441298
H      -2.3365304      4.5392230     -1.3419916
H      -3.9741594      5.0002818     -1.8683813
H      -3.4877294      5.6337069      0.5740319
H      -3.3335189      3.8791746      0.9219621
H      -4.8931640      4.5523903      0.3839196
H      -1.1117481     -0.1342125     -0.8965228
H      -4.3576815      0.7140691     -1.9258169
H      -4.2455405     -1.5175773     -1.9351711
H      -4.3053006     -3.8235746     -2.2401138
H      -3.3990891     -6.1065495     -1.9154824
H      -1.1724540     -6.4265449     -0.8379914
H       0.1217187     -4.4308139     -0.0762974
H      -0.7827153     -2.1638947     -0.3899137
H       1.8220078      4.8134757      2.7894629
C       1.6430964      3.7992010      2.4463563
H       3.2920200      2.4686207      3.1506730
H      -0.0782854      5.2678003      0.8207079
C       2.3597035      2.6563187      2.6267317
H      -1.1304027      4.6362540      2.1348687
C      -0.5219550      4.3685700      1.2630349
N       0.5473698      3.4676601      1.6784439
H       6.5779686      1.3207713     -1.0693582
H       6.2149869      2.2985340     -3.3405768
C       5.5732741      1.3398185     -1.4952371
C       5.3691249      1.8937815     -2.7831321
N       1.6815637      1.6528334      1.9601366
H      -1.1298532      3.8329797      0.5247414
C       0.5842860      2.1712580      1.3931850
C       4.5178277      0.8256041     -0.7770940
C       4.1048792      1.9159039     -3.3253297
H       2.0914221      0.1833482      4.0935247
H       4.6858090      0.4004102      0.2146674
H       3.9338673      2.3370996     -4.3186799
C       2.0719887      0.2738457      1.9235271
C       2.2501832     -0.3768618      3.1709868
C       3.1976244      0.8410543     -1.3104142
C       2.9948360      1.3925995     -2.6105189
H      -0.1786596      1.6291188      0.8256907
C       2.0777517      0.3227118     -0.5945299
C       1.6798094      1.3964101     -3.1595772
C       2.2473064     -0.3670690      0.7152699
C       2.5962911     -1.7011262      3.1984430
H       1.5306798      1.8099426     -4.1593845
H       2.7321845     -2.2155563      4.1511971
C       0.6137208      0.9035517     -2.4567759
C       0.8076052      0.3625604     -1.1514025
C       2.5845668     -1.7617949      0.7394841
C       2.7626946     -2.4284451      1.9874609
O      -0.2009864     -0.1042742     -0.4210248
H      -0.3966072      0.9205504     -2.8660246
C       2.7426919     -2.5071779     -0.4626033
C       3.0977642     -3.8100692      1.9970273
H       2.5973342     -2.0052046     -1.4200002
H       3.2319822     -4.3092429      2.9586638
C       3.0656906     -3.8428875     -0.4215096
C       3.2472015     -4.5026277      0.8196732
H       3.1786945     -4.4018574     -1.3515424
H       3.5040577     -5.5627750      0.8362733
H      -1.2766594     -0.1052669      3.2017264
C      -3.5699263     -1.5275581      1.3379944
C      -4.6607198     -0.7963826      0.6809589
C      -3.0140315      0.6980461      1.3217202
C      -1.3893538     -0.8578735      2.4076847
C      -4.3335512      0.5295393      0.6366907
N      -2.5721348     -0.5706954      1.6308991
O      -2.4214459      1.7261244      1.6022087
O      -3.4848535     -2.6948595      1.6540805
H      -5.5805273     -1.2841747      0.3682473
H      -0.4903982     -0.8559406      1.7746163
H      -4.9658014      1.3843775      0.4130092
H      -1.5165079     -1.8523433      2.8528325
          85

O      -1.6156541      2.3494357     -1.0474990
C      -2.7623757      2.0722198     -1.3653115
O      -3.7161832      3.0240478     -1.5449179
C      -3.4032174      4.3625548     -1.1780483
C      -3.8068707      4.6203229      0.2627024
C      -3.3289030      0.7631102     -1.5541202
N      -2.5965889     -0.3591207     -1.4526802
C      -3.2071855     -1.5108816     -1.5736060
C      -2.5980878     -2.8242895     -1.3716220
C      -3.3260900     -3.9592417     -1.7709083
C      -2.8185741     -5.2423824     -1.5848123
C      -1.5718109     -5.4225068     -0.9826339
C      -0.8467627     -4.3044460     -0.5636580
C      -1.3514974     -3.0205395     -0.7487821
H      -2.3306069      4.5414563     -1.3352791
H      -3.9650656      5.0040710     -1.8696376
H      -3.4970530      5.6279064      0.5769212
H      -3.3388389      3.8728954      0.9199493
H      -4.8976934      4.5426055      0.3748876
H      -1.1114716     -0.1335193     -0.8976620
H      -4.3536471      0.7181750     -1.9348546
H      -4.2428409     -1.5182064     -1.9428803
H      -4.3042021     -3.8250730     -2.2395300
H      -3.3995299     -6.1074469     -1.9100548
H      -1.1721110     -6.4269993     -0.8335012
H       0.1242524     -4.4297155     -0.0785246
H      -0.7777129     -2.1636184     -0.3980164
H       1.8213409      4.8137993      2.7858294
C       1.6418763      3.7993420      2.4435506
H       3.2909398      2.4687198      3.1474249
H      -0.0804763      5.2670988      0.8178240
C       2.3582974      2.6563619      2.6240469
H      -1.1308535      4.6379109      2.1343696
C      -0.5240482      4.3686536      1.2618640
N       0.5454083      3.4676183      1.6767943
H       6.5780266      1.3193723     -1.0685419
H       6.2158052      2.2974297     -3.3397487
C       5.5734212      1.3387877     -1.4946172
C       5.3696894      1.8929351     -2.7824998
N       1.6793647      1.6526459      1.9587241
H      -1.1331505      3.8323800      0.5250111
C       0.5818003      2.1710163      1.3922567
C       4.5176443      0.8248323     -0.7767882
C       4.1055519      1.9156303     -3.3249562
H       2.0875608      0.1831861      4.0925933
H       4.6852018      0.3994262      0.2149556
H       3.9349293      2.3370628     -4.3182739
C       2.0697348      0.2736238      1.9227894
C       2.2471894     -0.3771521      3.1703296
C       3.1975926      0.8408413     -1.3104421
C       2.9951373      1.3927430     -2.6104332
H      -0.1812812      1.6294264      0.8243787
C       2.0774518      0.3226609     -0.5950002
C       1.6800851      1.3976052     -3.1595037
C       2.2462398     -0.3673003      0.7147190
C       2.5934832     -1.7014130      3.1978881
H       1.5312259      1.8117907     -4.1590796
H       2.7288700     -2.2158958      4.1506971
C       0.6136439      0.9051798     -2.4569285
C       0.8074741      0.3631385     -1.1520334
C       2.5834662     -1.7620053      0.7389698
C       2.7607024     -2.4287626      1.9869976
O      -0.2010239     -0.1045102     -0.4221046
H      -0.3967909      0.9232538     -2.8659773
C       2.7423680     -2.5071992     -0.4631369
C       3.0956945     -3.8104230      1.9965665
H       2.5976334     -2.0050584     -1.4205422
H       3.2292495     -4.3097768      2.9582058
C       3.0652723     -3.8429228     -0.4220330
C       3.2458948     -4.5028191      0.8192002
H       3.1788447     -4.4017845     -1.3520616
H       3.5026724     -5.5629868      0.8358320
H      -1.2627185     -0.1038552      3.1908855
C      -3.5680190     -1.5279371      1.3431918
C      -4.6702735     -0.7926356      0.7008041
C      -3.0194447      0.6981604      1.3325032
C      -1.3835185     -0.8600882      2.4016307
C      -4.3488203      0.5297561      0.6674473
N      -2.5722873     -0.5722054      1.6335635
O      -2.4248043      1.7252758      1.6092263
O      -3.4814517     -2.6971657      1.6480097
H      -5.5885092     -1.2823776      0.3865338
H      -0.4899030     -0.8633193      1.7613908
H      -4.9743883      1.3859112      0.4211736
H      -1.5096494     -1.8519864      2.8527358
          85

O      -1.6119540      2.3493019     -1.0381629
C      -2.7556460      2.0723582     -1.3703482
O      -3.7067675      3.0272763     -1.5574331
C      -3.3965989      4.3628253     -1.1798363
C      -3.8109466      4.6129269      0.2593780
C      -3.3204720      0.7670817     -1.5746986
N      -2.5959375     -0.3584071     -1.4566938
C      -3.2040937     -1.5108926     -1.5810360
C      -2.5954766     -2.8237493     -1.3752802
C      -3.3246824     -3.9597270     -1.7703270
C      -2.8182253     -5.2428120     -1.5810148
C      -1.5709774     -5.4227925     -0.9797868
C      -0.8442186     -4.3039674     -0.5657896
C      -1.3475744     -3.0200842     -0.7545803
H      -2.3228258      4.5431791     -1.3277919
H      -3.9531282      5.0089606     -1.8715575
H      -3.5067191      5.6201614      0.5802255
H      -3.3449204      3.8644018      0.9168709
H      -4.9023125      4.5312156      0.3635197
H      -1.1115140     -0.1327626     -0.8990842
H      -4.3468723      0.7236456     -1.9488897
H      -4.2398813     -1.5187717     -1.9505749
H      -4.3032844     -3.8262651     -2.2381533
H      -3.4006324     -6.1081169     -1.9030646
H      -1.1722280     -6.4272444     -0.8279361
H       0.1275362     -4.4284679     -0.0818899
H      -0.7713974     -2.1630615     -0.4081891
H       1.8206159      4.8140388      2.7821657
C       1.6405205      3.7994694      2.4405610
H       3.2897325      2.4685992      3.1436402
H      -0.0829432      5.2668124      0.8154364
C       2.3566975      2.6563430      2.6210010
H      -1.1314641      4.6395964      2.1343510
C      -0.5264050      4.3690533      1.2610155
N       0.5432004      3.4677346      1.6750701
H       6.5782058      1.3175140     -1.0677686
H       6.2169443      2.2961057     -3.3388890
C       5.5737006      1.3375012     -1.4940541
C       5.3704956      1.8919785     -2.7818781
N       1.6767415      1.6524796      1.9569584
H      -1.1368269      3.8323133      0.5255867
C       0.5788936      2.1709921      1.3910232
C       4.5175038      0.8239092     -0.7766048
C       4.1064728      1.9155546     -3.3245923
H       2.0827515      0.1828743      4.0914785
H       4.6845599      0.3981631      0.2150791
H       3.9363275      2.3373678     -4.3178303
C       2.0669978      0.2733765      1.9216642
C       2.2432695     -0.3774442      3.1693535
C       3.1976269      0.8407115     -1.3106339
C       2.9955881      1.3931976     -2.6104278
H      -0.1844001      1.6300433      0.8227629
C       2.0771550      0.3226669     -0.5957780
C       1.6805098      1.3993960     -3.1595057
C       2.2449608     -0.3675438      0.7138381
C       2.5897191     -1.7016971      3.1971780
H       1.5319774      1.8144610     -4.1587644
H       2.7243025     -2.2161802      4.1501039
C       0.6136539      0.9073141     -2.4572961
C       0.8073502      0.3638676     -1.1530065
C       2.5820912     -1.7622265      0.7382789
C       2.7581527     -2.4290459      1.9864288
O      -0.2010125     -0.1048465     -0.4236868
H      -0.3968496      0.9264930     -2.8662441
C       2.7419859     -2.5072722     -0.4637849
C       3.0931314     -3.8107208      1.9961263
H       2.5980638     -2.0049897     -1.4212415
H       3.2258444     -4.3102095      2.9578132
C       3.0647924     -3.8430061     -0.4225435
C       3.2443310     -4.5029926      0.8188046
H       3.1791046     -4.4018059     -1.3525182
H       3.5010572     -5.5631714      0.8355635
H      -1.2462721     -0.1031089      3.1795147
C      -3.5665552     -1.5284885      1.3488393
C      -4.6783684     -0.7896760      0.7205995
C      -3.0234532      0.6979677      1.3446464
C      -1.3769520     -0.8633028      2.3956968
C      -4.3614422      0.5313965      0.6958285
N      -2.5719869     -0.5735838      1.6375529
O      -2.4277434      1.7243669      1.6189421
O      -3.4780890     -2.6996445      1.6428380
H      -5.5952051     -1.2810940      0.4040743
H      -0.4894371     -0.8732171      1.7473177
H      -4.9825681      1.3858718      0.4435514
H      -1.5027715     -1.8521866      2.8535290
          85

O      -1.6091275      2.3478656     -1.0278592
C      -2.7496628      2.0722223     -1.3743461
O      -3.6959404      3.0312696     -1.5726240
C      -3.3885077      4.3634470     -1.1828278
C      -3.8147620      4.6038597      0.2546541
C      -3.3131161      0.7703272     -1.5901115
N      -2.5955233     -0.3574331     -1.4596848
C      -3.2009285     -1.5106894     -1.5881775
C      -2.5926051     -2.8229112     -1.3793113
C      -3.3236166     -3.9598390     -1.7689602
C      -2.8183938     -5.2428707     -1.5760533
C      -1.5702513     -5.4226075     -0.9766124
C      -0.8411470     -4.3030180     -0.5688051
C      -1.3430014     -3.0191893     -0.7615940
H      -2.3135532      4.5450044     -1.3206051
H      -3.9391807      5.0148519     -1.8742738
H      -3.5164498      5.6101577      0.5839269
H      -3.3513366      3.8532902      0.9117462
H      -4.9066819      4.5180985      0.3495134
H      -1.1116683     -0.1316944     -0.9007004
H      -4.3427159      0.7278550     -1.9580176
H      -4.2369322     -1.5190204     -1.9576712
H      -4.3031096     -3.8271304     -2.2351672
H      -3.4027145     -6.1084827     -1.8938557
H      -1.1726246     -6.4270392     -0.8217176
H       0.1316644     -4.4267359     -0.0867846
H      -0.7641417     -2.1620035     -0.4203630
H       1.8196488      4.8142044      2.7785698
C       1.6388358      3.7995928      2.4374678
H       3.2879587      2.4681645      3.1397025
H      -0.0860527      5.2669871      0.8133233
C       2.3545912      2.6562058      2.6177652
H      -1.1320870      4.6415540      2.1350452
C      -0.5291687      4.3698480      1.2605695
N       0.5406638      3.4680852      1.6731411
H       6.5785477      1.3149728     -1.0671407
H       6.2184651      2.2946025     -3.3379916
C       5.5741441      1.3358464     -1.4936242
C       5.3715890      1.8909460     -2.7812881
N       1.6735338      1.6523618      1.9548019
H      -1.1412672      3.8327532      0.5268171
C       0.5755145      2.1712308      1.3893638
C       4.5174206      0.8227180     -0.7766458
C       4.1076821      1.9158218     -3.3242376
H       2.0765926      0.1825287      4.0899467
H       4.6838839      0.3963956      0.2148921
H       3.9381038      2.3382535     -4.3173099
C       2.0635954      0.2731342      1.9201047
C       2.2382280     -0.3777605      3.1679905
C       3.1977231      0.8406749     -1.3110577
C       2.9962116      1.3940912     -2.6105296
H      -0.1880278      1.6310439      0.8206620
C       2.0768382      0.3227537     -0.5969511
C       1.6811138      1.4019857     -3.1596154
C       2.2433766     -0.3677731      0.7125699
C       2.5846851     -1.7020317      3.1962185
H       1.5329836      1.8182167     -4.1584479
H       2.7180762     -2.2165276      4.1493070
C       0.6137632      0.9101106     -2.4579585
C       0.8072216      0.3648609     -1.1544215
C       2.5803442     -1.7624569      0.7373325
C       2.7547550     -2.4293546      1.9856685
O      -0.2009319     -0.1051495     -0.4258165
H      -0.3967648      0.9305012     -2.8669145
C       2.7416370     -2.5073891     -0.4646115
C       3.0897244     -3.8110383      1.9956532
H       2.5988753     -2.0049821     -1.4221819
H       3.2212511     -4.3106314      2.9574496
C       3.0643232     -3.8431391     -0.4230839
C       3.2423563     -4.5032026      0.8184476
H       3.1796974     -4.4018960     -1.3529535
H       3.4990405     -5.5633879      0.8354348
H      -1.2291746     -0.1035457      3.1683750
C      -3.5649133     -1.5294372      1.3543534
C      -4.6851979     -0.7868963      0.7392589
C      -3.0267390      0.6974478      1.3579018
C      -1.3702159     -0.8675547      2.3902718
C      -4.3712337      0.5315632      0.7226513
N      -2.5713891     -0.5754805      1.6422923
O      -2.4301281      1.7230812      1.6310042
O      -3.4745793     -2.7024005      1.6381537
H      -5.6010410     -1.2791169      0.4209192
H      -0.4890389     -0.8846835      1.7337387
H      -4.9889103      1.3880655      0.4560857
H      -1.4959471     -1.8531903      2.8549479
          85

O      -1.6069451      2.3459439     -1.0159274
C      -2.7441984      2.0726179     -1.3775237
O      -3.6839441      3.0358521     -1.5904139
C      -3.3792692      4.3643611     -1.1873861
C      -3.8178938      4.5937141      0.2483224
C      -3.3087072      0.7736300     -1.6009575
N      -2.5953750     -0.3562306     -1.4614826
C      -3.1988398     -1.5100205     -1.5928602
C      -2.5901869     -2.8218524     -1.3824183
C      -3.3233859     -3.9596063     -1.7659302
C      -2.8192745     -5.2425731     -1.5697227
C      -1.5696187     -5.4219941     -0.9733697
C      -0.8374383     -4.3016658     -0.5731538
C      -1.3379903     -3.0179074     -0.7695740
H      -2.3030833      4.5470840     -1.3144405
H      -3.9237292      5.0215594     -1.8783369
H      -3.5254462      5.5986334      0.5870690
H      -3.3575046      3.8403764      0.9045332
H      -4.9103517      4.5040266      0.3333278
H      -1.1120747     -0.1305360     -0.9023299
H      -4.3384131      0.7328851     -1.9680428
H      -4.2345575     -1.5190726     -1.9636064
H      -4.3043145     -3.8275874     -2.2293296
H      -3.4059200     -6.1084934     -1.8823856
H      -1.1730803     -6.4263818     -0.8154922
H       0.1370558     -4.4245796     -0.0942830
H      -0.7559504     -2.1605370     -0.4344558
H       1.8182668      4.8141529      2.7755563
C       1.6366981      3.7996330      2.4345888
H       3.2856161      2.4672869      3.1355572
H      -0.0895325      5.2679445      0.8124781
C       2.3519599      2.6558860      2.6143382
H      -1.1332148      4.6434215      2.1364150
C      -0.5323302      4.3711603      1.2607250
N       0.5376749      3.4686832      1.6712816
H       6.5792092      1.3115257     -1.0669060
H       6.2204232      2.2930207     -3.3371541
C       5.5748801      1.3337317     -1.4935000
C       5.3730386      1.8899220     -2.7808190
N       1.6697737      1.6523546      1.9520716
H      -1.1460377      3.8342583      0.5283022
C       0.5716037      2.1717964      1.3873333
C       4.5175288      0.8211739     -0.7770789
C       4.1092145      1.9166608     -3.3239029
H       2.0682397      0.1821622      4.0878358
H       4.6833198      0.3939118      0.2141693
H       3.9402759      2.3400769     -4.3166661
C       2.0593905      0.2729362      1.9180061
C       2.2315405     -0.3781047      3.1661540
C       3.1979821      0.8407970     -1.3117980
C       2.9970451      1.3956171     -2.6107599
H      -0.1922087      1.6324858      0.8181441
C       2.0766422      0.3229817     -0.5985703
C       1.6818880      1.4056019     -3.1597558
C       2.2415594     -0.3679338      0.7108445
C       2.5778090     -1.7024352      3.1949308
H       1.5341597      1.8233699     -4.1580080
H       2.7093608     -2.2170169      4.1482311
C       0.6140084      0.9137154     -2.4588125
C       0.8071667      0.3661731     -1.1562112
C       2.5781587     -1.7626616      0.7360546
C       2.7501582     -2.4296891      1.9846494
O      -0.2006497     -0.1054129     -0.4283799
H      -0.3965136      0.9353714     -2.8678471
C       2.7414214     -2.5074779     -0.4656972
C       3.0850429     -3.8113963      1.9950745
H       2.6003583     -2.0049104     -1.4234437
H       3.2147980     -4.3111172      2.9570445
C       3.0639241     -3.8432581     -0.4237365
C       3.2397608     -4.5034306      0.8180620
H       3.1808456     -4.4019603     -1.3534472
H       3.4963697     -5.5636290      0.8353970
H      -1.2107962     -0.1045261      3.1574643
C      -3.5625293     -1.5315119      1.3595168
C      -4.6885149     -0.7865114      0.7544995
C      -3.0279470      0.6955165      1.3711272
C      -1.3630172     -0.8733005      2.3859568
C      -4.3775315      0.5319279      0.7447767
N      -2.5696843     -0.5784090      1.6476739
O      -2.4317971      1.7205829      1.6452929
O      -3.4707783     -2.7059048      1.6346782
H      -5.6049011     -1.2782933      0.4370965
H      -0.4881018     -0.8991809      1.7212794
H      -4.9945563      1.3863427      0.4838741
H      -1.4896979     -1.8551776      2.8586585
          85

O      -1.6052320      2.3436029     -1.0052017
C      -2.7389931      2.0722571     -1.3801210
O      -3.6716352      3.0396982     -1.6084708
C      -3.3700685      4.3649254     -1.1935948
C      -3.8200134      4.5837486      0.2402545
C      -3.3038582      0.7757512     -1.6087747
N      -2.5949700     -0.3556725     -1.4619202
C      -3.1963940     -1.5097328     -1.5967016
C      -2.5877319     -2.8211021     -1.3848391
C      -3.3241653     -3.9595052     -1.7605457
C      -2.8209822     -5.2424179     -1.5616272
C      -1.5688142     -5.4214871     -0.9704820
C      -0.8329112     -4.3005436     -0.5788601
C      -1.3323369     -3.0168534     -0.7782512
H      -2.2930072      4.5488802     -1.3110272
H      -3.9092883      5.0270036     -1.8838609
H      -3.5330142      5.5871204      0.5880092
H      -3.3624073      3.8276590      0.8953862
H      -4.9128388      4.4905498      0.3160835
H      -1.1117350     -0.1294814     -0.9036933
H      -4.3341310      0.7361114     -1.9747791
H      -4.2327269     -1.5191349     -1.9659174
H      -4.3072240     -3.8279845     -2.2195653
H      -3.4104913     -6.1086755     -1.8679966
H      -1.1731403     -6.4258471     -0.8102859
H       0.1438911     -4.4227951     -0.1045125
H      -0.7467979     -2.1592829     -0.4500107
H       1.8164875      4.8139259      2.7733886
C       1.6341549      3.7996277      2.4321695
H       3.2827466      2.4660406      3.1315299
H      -0.0931028      5.2696055      0.8125656
C       2.3488673      2.6554323      2.6110036
H      -1.1347151      4.6454308      2.1383912
C      -0.5357314      4.3729834      1.2614091
N       0.5343339      3.4695548      1.6696762
H       6.5804261      1.3071218     -1.0674868
H       6.2227523      2.2915949     -3.3366088
C       5.5760842      1.3311702     -1.4939514
C       5.3748507      1.8890686     -2.7806463
N       1.6655670      1.6524721      1.9490100
H      -1.1509989      3.8365827      0.5299830
C       0.5673237      2.1727420      1.3850685
C       4.5180983      0.8192635     -0.7780547
C       4.1110211      1.9182704     -3.3236099
H       2.0573954      0.1814439      4.0853162
H       4.6832638      0.3906250      0.2127066
H       3.9426585      2.3431180     -4.3158595
C       2.0545166      0.2727797      1.9155103
C       2.2229222     -0.3786840      3.1639385
C       3.1986199      0.8411555     -1.3128297
C       2.9981546      1.3978736     -2.6110511
H      -0.1967650      1.6345367      0.8152327
C       2.0768376      0.3234805     -0.6004960
C       1.6828826      1.4102621     -3.1597891
C       2.2397630     -0.3679372      0.7087776
C       2.5684322     -1.7032108      3.1933352
H       1.5354779      1.8299172     -4.1572979
H       2.6970922     -2.2181062      4.1468636
C       0.6145081      0.9180981     -2.4596628
C       0.8074806      0.3679178     -1.1581838
C       2.5756175     -1.7627926      0.7344623
C       2.7439076     -2.4302149      1.9833438
O      -0.1997958     -0.1055001     -0.4309531
H      -0.3959957      0.9411868     -2.8687656
C       2.7417243     -2.5073245     -0.4670804
C       3.0783246     -3.8120329      1.9942717
H       2.6033617     -2.0043955     -1.4250441
H       3.2053101     -4.3120848      2.9564423
C       3.0637242     -3.8432138     -0.4246294
C       3.2360593     -4.5037617      0.8174773
H       3.1829423     -4.4017161     -1.3541728
H       3.4923331     -5.5640352      0.8352118
H      -1.1960065     -0.1099599      3.1505715
C      -3.5598343     -1.5339098      1.3636028
C      -4.6911688     -0.7852536      0.7687504
C      -3.0280298      0.6933839      1.3838965
C      -1.3563174     -0.8799623      2.3827136
C      -4.3811203      0.5308944      0.7650349
N      -2.5674032     -0.5818214      1.6527773
O      -2.4319598      1.7176733      1.6598444
O      -3.4668292     -2.7098886      1.6306452
H      -5.6060869     -1.2780294      0.4475305
H      -0.4866718     -0.9105831      1.7120342
H      -4.9964634      1.3885129      0.4951709
H      -1.4826399     -1.8597297      2.8590600
          85

O      -1.6048044      2.3432583     -0.9991733
C      -2.7372069      2.0729521     -1.3795825
O      -3.6665769      3.0420714     -1.6153877
C      -3.3661751      4.3660365     -1.1956476
C      -3.8204724      4.5802110      0.2376130
C      -3.3028278      0.7771044     -1.6087006
N      -2.5950987     -0.3547617     -1.4612153
C      -3.1965589     -1.5087815     -1.5959175
C      -2.5877944     -2.8201414     -1.3844629
C      -3.3253161     -3.9586499     -1.7577026
C      -2.8221167     -5.2415297     -1.5586830
C      -1.5688031     -5.4205354     -0.9699463
C      -0.8316309     -4.2994761     -0.5810915
C      -1.3310097     -3.0158449     -0.7806961
H      -2.2887745      4.5505399     -1.3093890
H      -3.9034430      5.0301014     -1.8855043
H      -3.5355129      5.5828262      0.5893285
H      -3.3639736      3.8227459      0.8920217
H      -4.9134515      4.4856355      0.3098486
H      -1.1119922     -0.1289491     -0.9040709
H      -4.3333911      0.7382056     -1.9746014
H      -4.2330913     -1.5181178     -1.9646134
H      -4.3093185     -3.8272520     -2.2147488
H      -3.4125625     -6.1078467     -1.8630695
H      -1.1731830     -6.4248789     -0.8096069
H       0.1462093     -4.4215347     -0.1088118
H      -0.7442616     -2.1582579     -0.4547804
H       1.8161011      4.8138851      2.7728340
C       1.6334001      3.7995600      2.4314032
H       3.2820384      2.4653890      3.1299189
H      -0.0945034      5.2709735      0.8145286
C       2.3478846      2.6551854      2.6097086
H      -1.1356959      4.6452457      2.1399132
C      -0.5369972      4.3738386      1.2624298
N       0.5331832      3.4699331      1.6693159
H       6.5806933      1.3053702     -1.0676819
H       6.2234750      2.2910128     -3.3363698
C       5.5763510      1.3301421     -1.4941064
C       5.3753656      1.8887174     -2.7805565
N       1.6640641      1.6525227      1.9478144
H      -1.1524266      3.8382687      0.5306156
C       0.5657460      2.1731627      1.3843327
C       4.5181126      0.8184727     -0.7784368
C       4.1115318      1.9189088     -3.3234710
H       2.0534920      0.1812825      4.0843007
H       4.6830296      0.3892748      0.2121247
H       3.9434050      2.3443388     -4.3155121
C       2.0526652      0.2727134      1.9145077
C       2.2197959     -0.3788359      3.1630523
C       3.1986576      0.8412600     -1.3132376
C       2.9983753      1.3987833     -2.6111439
H      -0.1985096      1.6353512      0.8143560
C       2.0767156      0.3236133     -0.6012586
C       1.6830291      1.4122097     -3.1597175
C       2.2389455     -0.3679929      0.7079503
C       2.5651004     -1.7034126      3.1927207
H       1.5357238      1.8326699     -4.1569043
H       2.6928083     -2.2183689      4.1463441
C       0.6144604      0.9199518     -2.4598847
C       0.8073572      0.3686068     -1.1588839
C       2.5745681     -1.7628826      0.7338521
C       2.7416901     -2.4303641      1.9828581
O      -0.1996821     -0.1054960     -0.4318812
H      -0.3960455      0.9436403     -2.8690083
C       2.7416378     -2.5073731     -0.4675838
C       3.0761147     -3.8121776      1.9940139
H       2.6040892     -2.0043820     -1.4256347
H       3.2022589     -4.3122737      2.9562708
C       3.0636139     -3.8432628     -0.4249067
C       3.2349140     -4.5038434      0.8173282
H       3.1836186     -4.4017415     -1.3543638
H       3.4912126     -5.5641076      0.8352423
H      -1.1844895     -0.1075790      3.1438901
C      -3.5565600     -1.5356297      1.3663115
C      -4.6891436     -0.7863729      0.7736601
C      -3.0261020      0.6918366      1.3894634
C      -1.3514890     -0.8829271      2.3823381
C      -4.3800524      0.5295871      0.7724386
N      -2.5642091     -0.5837739      1.6553883
O      -2.4307301      1.7160315      1.6668188
O      -3.4634093     -2.7117826      1.6319898
H      -5.6042410     -1.2792306      0.4529538
H      -0.4844905     -0.9223177      1.7082182
H      -4.9961255      1.3878479      0.5024275
H      -1.4806101     -1.8587450      2.8666725
