          85

O      -1.8667381      1.8909794     -1.8605997
C      -3.0872074      1.6907810     -1.8562496
O      -3.9429512      2.7130510     -2.0594003
C      -3.3707446      3.9966160     -2.2831353
C      -4.5041365      4.9778234     -2.4769139
C      -3.7468694      0.4498242     -1.6166979
N      -3.0091775     -0.6342205     -1.3470485
C      -3.5594806     -1.7746274     -1.0635956
C      -2.7492795     -2.9283760     -0.6750317
C      -3.3625908     -4.1395609     -0.3175089
C      -2.5996485     -5.2415814      0.0658543
C      -1.2073865     -5.1524279      0.1041653
C      -0.5871507     -3.9462358     -0.2397767
C      -1.3447529     -2.8448701     -0.6222433
H      -2.7382490      4.2641711     -1.4231069
H      -2.7169475      3.9547091     -3.1677207
H      -5.1262568      4.6826734     -3.3332400
H      -4.1045790      5.9832876     -2.6658576
H      -5.1398192      5.0168000     -1.5813370
H      -0.8384639      0.7962928     -1.2663945
H      -4.8313633      0.4099241     -1.7444022
H      -4.6506438     -1.9209364     -1.1381654
H      -4.4529103     -4.2105003     -0.3373777
H      -3.0953731     -6.1755267      0.3385412
H      -0.6074418     -6.0144947      0.4020843
H       0.5004596     -3.8659219     -0.2123495
H      -0.8650452     -1.8985343     -0.8825409
H       2.1782541      4.1565637      3.5193189
C       1.9148583      3.2426846      2.9955579
H       3.4469196      1.6718123      3.4144967
H      -1.0456646      3.7632575      1.4504558
C       2.5339352      2.0304520      2.9481796
H       0.2701883      4.9910629      1.3373867
C      -0.1847094      4.2108487      1.9585201
N       0.7904358      3.1507967      2.2023965
H       6.8731301      1.1148486     -0.2577540
H       6.8878125      2.8647084     -2.0426739
C       5.9375061      1.4019151     -0.7407841
C       5.9477071      2.3934979     -1.7524971
N       1.7712218      1.2278253      2.1217575
H      -0.4974827      4.6328611      2.9198420
C       0.7232683      1.9309471      1.6807682
C       4.7616108      0.7954866     -0.3620736
C       4.7703605      2.7552474     -2.3642065
H       1.9031383     -0.7376834      3.8686603
H       4.7706786      0.0310678      0.4172848
H       4.7613637      3.5180372     -3.1459862
C       2.0473638     -0.1395992      1.7865414
C       2.0965127     -1.0752588      2.8494352
C       3.5265841      1.1483357     -0.9787168
C       3.5406400      2.1472545     -1.9965166
H      -0.0807902      1.5665107      1.0358699
C       2.2856640      0.5431062     -0.6079981
C       2.3119531      2.5119161     -2.6151679
C       2.2601680     -0.4876885      0.4685806
C       2.3792125     -2.3873437      2.5762014
H       2.3224577      3.2793409     -3.3921815
H       2.4259058     -3.1206223      3.3828551
C       1.1307808      1.9234526     -2.2524789
C       1.1077036      0.9188749     -1.2380762
C       2.5364536     -1.8634359      0.1767558
C       2.6132884     -2.8123462      1.2392957
O      -0.0367571      0.3408389     -0.8604310
H       0.1855613      2.2091694     -2.7126428
C       2.7635596     -2.3063551     -1.1560871
C       2.9295863     -4.1662475      0.9402972
H       2.6939234     -1.5843200     -1.9709718
H       2.9867978     -4.8838379      1.7609682
C       3.0663631     -3.6226440     -1.4140443
C       3.1561569     -4.5620853     -0.3561595
H       3.2365103     -3.9495107     -2.4407512
H       3.3987614     -5.6024344     -0.5772274
H      -0.9245592     -0.1322734      2.9029423
C      -3.7676560     -1.1581786      1.7782059
C      -4.8885490     -0.3572514      1.2407005
C      -2.9493147      0.8919576      1.1747054
C      -1.3003869     -0.7563099      2.0754621
C      -4.4137663      0.8535016      0.8700770
N      -2.6237361     -0.3438657      1.6792034
O      -2.1707853      1.8226160      1.0487424
O      -3.7716225     -2.2613643      2.2757789
H      -5.9058739     -0.7387735      1.1946680
H      -0.6144864     -0.6987836      1.2178018
H      -4.9471808      1.7298860      0.5172578
H      -1.3682418     -1.7989090      2.4100753
          85

O      -1.8685370      1.8907914     -1.8628429
C      -3.0886675      1.6920348     -1.8534957
O      -3.9446710      2.7140809     -2.0544023
C      -3.3727362      3.9968518     -2.2843494
C      -4.5062565      4.9778137     -2.4784279
C      -3.7480647      0.4510380     -1.6087907
N      -3.0088071     -0.6331789     -1.3443339
C      -3.5590732     -1.7738105     -1.0615823
C      -2.7489069     -2.9280216     -0.6740213
C      -3.3625075     -4.1391975     -0.3171752
C      -2.5996918     -5.2417698      0.0649027
C      -1.2074047     -5.1529386      0.1026464
C      -0.5869287     -3.9465862     -0.2402501
C      -1.3444240     -2.8446740     -0.6213660
H      -2.7376874      4.2670215     -1.4271017
H      -2.7215464      3.9512578     -3.1705804
H      -5.1309841      4.6798079     -3.3318139
H      -4.1066934      5.9822901     -2.6723216
H      -5.1392723      5.0205514     -1.5811822
H      -0.8378739      0.7927769     -1.2660564
H      -4.8325354      0.4096072     -1.7401797
H      -4.6500945     -1.9201982     -1.1366496
H      -4.4528499     -4.2097660     -0.3367020
H      -3.0954957     -6.1758398      0.3369896
H      -0.6075631     -6.0154495      0.3994855
H       0.5007029     -3.8665754     -0.2130391
H      -0.8646166     -1.8981768     -0.8808220
H       2.1788561      4.1563425      3.5192530
C       1.9154462      3.2425036      2.9957586
H       3.4478135      1.6719579      3.4142090
H      -1.0455030      3.7623934      1.4511270
C       2.5347201      2.0303456      2.9482616
H       0.2699300      4.9907522      1.3387686
C      -0.1848019      4.2101300      1.9595090
N       0.7907111      3.1503203      2.2030641
H       6.8733269      1.1154342     -0.2585459
H       6.8871461      2.8653142     -2.0434373
C       5.9374916      1.4023827     -0.7412323
C       5.9471989      2.3939852     -1.7529437
N       1.7717858      1.2275023      2.1222415
H      -0.4978412      4.6316359      2.9209687
C       0.7235200      1.9303897      1.6815989
C       4.7618144      0.7958044     -0.3621107
C       4.7696112      2.7556120     -2.3642429
H       1.9035505     -0.7382433      3.8690435
H       4.7712240      0.0313665      0.4172246
H       4.7602549      3.5184169     -3.1460011
C       2.0479268     -0.1399276      1.7870066
C       2.0969023     -1.0757202      2.8497828
C       3.5265606      1.1484611     -0.9784017
C       3.5400987      2.1473897     -1.9961912
H      -0.0809969      1.5658597      1.0372668
C       2.2859004      0.5428399     -0.6075138
C       2.3111875      2.5117062     -2.6145702
C       2.2606608     -0.4879675      0.4690276
C       2.3793446     -2.3878308      2.5763719
H       2.3212811      3.2792133     -3.3915020
H       2.4258552     -3.1212185      3.3829360
C       1.1302652      1.9227131     -2.2518363
C       1.1078345      0.9180594     -1.2376005
C       2.5367383     -1.8636884      0.1770010
C       2.6133925     -2.8127304      1.2394230
O      -0.0362366      0.3389653     -0.8598663
H       0.1849205      2.2081305     -2.7119109
C       2.7637830     -2.3064342     -1.1559116
C       2.9295211     -4.1666307      0.9402302
H       2.6942629     -1.5842813     -1.9707012
H       2.9866194     -4.8843535      1.7607925
C       3.0664401     -3.6227168     -1.4140476
C       3.1561007     -4.5623041     -0.3562781
H       3.2365800     -3.9494648     -2.4407932
H       3.3986026     -5.6026487     -0.5774789
H      -0.9269024     -0.1287251      2.9056084
C      -3.7683953     -1.1572429      1.7762951
C      -4.8866885     -0.3584861      1.2333537
C      -2.9475453      0.8916870      1.1703883
C      -1.3015299     -0.7546498      2.0789921
C      -4.4102535      0.8512432      0.8586788
N      -2.6236775     -0.3426214      1.6787287
O      -2.1687243      1.8225808      1.0454034
O      -3.7722990     -2.2591579      2.2772882
H      -5.9041653     -0.7394235      1.1864945
H      -0.6135697     -0.6999334      1.2227524
H      -4.9438519      1.7288438      0.5078423
H      -1.3708076     -1.7962800      2.4163174
          85

O      -1.8738404      1.8897722     -1.8715440
C      -3.0931177      1.6943394     -1.8474565
O      -3.9503882      2.7167693     -2.0389276
C      -3.3790808      3.9963293     -2.2886748
C      -4.5122545      4.9775947     -2.4829407
C      -3.7487408      0.4529909     -1.5926802
N      -3.0077707     -0.6305132     -1.3378889
C      -3.5581309     -1.7721136     -1.0563784
C      -2.7478588     -2.9270780     -0.6719615
C      -3.3620721     -4.1384607     -0.3171234
C      -2.5996790     -5.2423320      0.0620085
C      -1.2073473     -5.1543336      0.0988346
C      -0.5862704     -3.9475815     -0.2415413
C      -1.3433409     -2.8443051     -0.6195181
H      -2.7349980      4.2745436     -1.4410852
H      -2.7369557      3.9389587     -3.1804675
H      -5.1458326      4.6715612     -3.3267910
H      -4.1120234      5.9786011     -2.6922430
H      -5.1363874      5.0324062     -1.5802970
H      -0.8363241      0.7827478     -1.2653781
H      -4.8382444      0.4089637     -1.7195317
H      -4.6486334     -1.9188018     -1.1342453
H      -4.4524662     -4.2081876     -0.3361448
H      -3.0957971     -6.1766858      0.3325214
H      -0.6078423     -6.0178618      0.3933581
H       0.5014067     -3.8682978     -0.2146338
H      -0.8630982     -1.8974745     -0.8767501
H       2.1804573      4.1562033      3.5187742
C       1.9168726      3.2419974      2.9960098
H       3.4507749      1.6725420      3.4129812
H      -1.0456488      3.7597424      1.4533384
C       2.5368365      2.0301786      2.9481270
H       0.2686014      4.9894863      1.3425107
C      -0.1855639      4.2078846      1.9624248
N       0.7910138      3.1487578      2.2050570
H       6.8737475      1.1170421     -0.2609699
H       6.8849879      2.8669931     -2.0457642
C       5.9372782      1.4036798     -0.7425961
C       5.9455073      2.3953417     -1.7542943
N       1.7731591      1.2264936      2.1236436
H      -0.4990972      4.6281883      2.9242538
C       0.7238404      1.9285326      1.6841417
C       4.7622345      0.7967053     -0.3622282
C       4.7671921      2.7566489     -2.3643465
H       1.9044699     -0.7399796      3.8701506
H       4.7726436      0.0321970      0.4170263
H       4.7567933      3.5194993     -3.1460417
C       2.0493616     -0.1409569      1.7883574
C       2.0978080     -1.0771419      2.8507854
C       3.5263110      1.1488296     -0.9774523
C       3.5382827      2.1477853     -1.9952126
H      -0.0817334      1.5636186      1.0411478
C       2.2864416      0.5420260     -0.6060674
C       2.3086512      2.5110719     -2.6127286
C       2.2619775     -0.4888174      0.4703330
C       2.3796167     -2.3892996      2.5768378
H       2.3174979      3.2788707     -3.3893713
H       2.4256222     -3.1230185      3.3831275
C       1.1284871      1.9204832     -2.2498653
C       1.1080187      0.9155220     -1.2361756
C       2.5374961     -1.8644429      0.1776977
C       2.6136678     -2.8138668      1.2397655
O      -0.0348864      0.3333336     -0.8583197
H       0.1826282      2.2049292     -2.7094595
C       2.7643133     -2.3066617     -1.1554315
C       2.9293614     -4.1677436      0.9399918
H       2.6950487     -1.5841586     -1.9699292
H       2.9861764     -4.8858589      1.7602280
C       3.0665399     -3.6229207     -1.4141113
C       3.1559065     -4.5629253     -0.3566799
H       3.2365396     -3.9493285     -2.4409873
H       3.3981051     -5.6032544     -0.5782829
H      -0.9352403     -0.1175609      2.9137679
C      -3.7689869     -1.1540675      1.7697965
C      -4.8812150     -0.3603993      1.2114989
C      -2.9421710      0.8913977      1.1576499
C      -1.3051252     -0.7499973      2.0900463
C      -4.4015315      0.8467398      0.8329027
N      -2.6230996     -0.3395952      1.6763083
O      -2.1615625      1.8218307      1.0339641
O      -3.7754335     -2.2516420      2.2806886
H      -5.8995426     -0.7387563      1.1638643
H      -0.6103039     -0.7044821      1.2389080
H      -4.9350430      1.7256616      0.4749936
H      -1.3789561     -1.7882763      2.4363188
          85

O      -1.8792672      1.8881702     -1.8784117
C      -3.0974414      1.6976604     -1.8403764
O      -3.9549990      2.7190166     -2.0269577
C      -3.3834107      3.9964133     -2.2922529
C      -4.5158956      4.9782185     -2.4863398
C      -3.7547967      0.4562868     -1.5680269
N      -3.0065228     -0.6284781     -1.3306783
C      -3.5570556     -1.7701369     -1.0520519
C      -2.7467961     -2.9267254     -0.6705678
C      -3.3619239     -4.1377096     -0.3172492
C      -2.5999256     -5.2425590      0.0599613
C      -1.2075809     -5.1550383      0.0960173
C      -0.5857675     -3.9482660     -0.2427653
C      -1.3425473     -2.8439944     -0.6185374
H      -2.7323604      4.2799624     -1.4516856
H      -2.7483181      3.9292850     -3.1884461
H      -5.1564341      4.6664958     -3.3228484
H      -4.1145604      5.9763298     -2.7073019
H      -5.1330544      5.0427165     -1.5794850
H      -0.8348177      0.7726023     -1.2652457
H      -4.8379701      0.4066196     -1.7166972
H      -4.6472057     -1.9171077     -1.1309426
H      -4.4523628     -4.2064687     -0.3356392
H      -3.0962288     -6.1770248      0.3295993
H      -0.6083902     -6.0193023      0.3890733
H       0.5019425     -3.8696865     -0.2160674
H      -0.8621629     -1.8967917     -0.8739804
H       2.1816347      4.1561784      3.5184755
C       1.9178818      3.2417333      2.9962107
H       3.4527414      1.6729406      3.4122245
H      -1.0458225      3.7578132      1.4551052
C       2.5382487      2.0301230      2.9481000
H       0.2676082      4.9886484      1.3447750
C      -0.1860356      4.2064446      1.9643203
N       0.7913140      3.1478524      2.2063280
H       6.8741682      1.1180733     -0.2626166
H       6.8836344      2.8680138     -2.0474085
C       5.9372580      1.4044944     -0.7435154
C       5.9444626      2.3961718     -1.7552527
N       1.7740695      1.2259246      2.1245445
H      -0.4997371      4.6261110      2.9263786
C       0.7240147      1.9274265      1.6858885
C       4.7626454      0.7973019     -0.3622630
C       4.7656645      2.7572939     -2.3644567
H       1.9048960     -0.7410802      3.8708361
H       4.7736981      0.0327700      0.4169582
H       4.7545823      3.5201856     -3.1461013
C       2.0503177     -0.1415269      1.7892588
C       2.0983310     -1.0780128      2.8514167
C       3.5262736      1.1491030     -0.9767777
C       3.5371250      2.1480429     -1.9945436
H      -0.0828970      1.5622181      1.0445807
C       2.2869813      0.5414714     -0.6050746
C       2.3069666      2.5106157     -2.6113857
C       2.2629547     -0.4893395      0.4712458
C       2.3797226     -2.3901998      2.5771173
H       2.3148696      3.2786295     -3.3878123
H       2.4253302     -3.1241444      3.3832225
C       1.1273209      1.9188247     -2.2484464
C       1.1083643      0.9135974     -1.2352806
C       2.5379991     -1.8648851      0.1781431
C       2.6138164     -2.8145567      1.2399715
O      -0.0334544      0.3285066     -0.8571645
H       0.1812663      2.2027083     -2.7079362
C       2.7646197     -2.3067368     -1.1551504
C       2.9292562     -4.1684092      0.9397981
H       2.6955383     -1.5840048     -1.9694605
H       2.9859266     -4.8867857      1.7598142
C       3.0665683     -3.6229758     -1.4141996
C       3.1557956     -4.5632508     -0.3569864
H       3.2365368     -3.9491537     -2.4411532
H       3.3978632     -5.6035540     -0.5788543
H      -0.9412209     -0.1103062      2.9206730
C      -3.7723740     -1.1520717      1.7643279
C      -4.8762613     -0.3652807      1.1923508
C      -2.9371980      0.8900387      1.1467540
C      -1.3083936     -0.7467081      2.0986765
C      -4.3910452      0.8406177      0.7993320
N      -2.6229888     -0.3365219      1.6747276
O      -2.1561611      1.8214066      1.0258002
O      -3.7774977     -2.2464500      2.2846798
H      -5.8945612     -0.7428378      1.1403459
H      -0.6081433     -0.7078572      1.2513935
H      -4.9254359      1.7238991      0.4606487
H      -1.3866629     -1.7827611      2.4508583
          85

O      -1.8852436      1.8854930     -1.8849743
C      -3.1021714      1.7009810     -1.8314836
O      -3.9590899      2.7213655     -2.0158766
C      -3.3868958      3.9958755     -2.2966672
C      -4.5181999      4.9787770     -2.4907352
C      -3.7588482      0.4607757     -1.5386469
N      -3.0051156     -0.6250421     -1.3208152
C      -3.5555414     -1.7677011     -1.0472663
C      -2.7451008     -2.9260494     -0.6702855
C      -3.3612857     -4.1366065     -0.3184341
C      -2.5999643     -5.2422002      0.0580432
C      -1.2076528     -5.1551173      0.0942696
C      -0.5848424     -3.9486653     -0.2436851
C      -1.3410403     -2.8436124     -0.6183915
H      -2.7288701      4.2844312     -1.4633654
H      -2.7588192      3.9186969     -3.1968375
H      -5.1651362      4.6623172     -3.3204911
H      -4.1155128      5.9739187     -2.7223214
H      -5.1288774      5.0519893     -1.5802201
H      -0.8336886      0.7627967     -1.2645017
H      -4.8412891      0.4058388     -1.7010337
H      -4.6452531     -1.9149143     -1.1278408
H      -4.4517656     -4.2043163     -0.3366022
H      -3.0966483     -6.1765622      0.3272206
H      -0.6089980     -6.0198279      0.3871032
H       0.5028782     -3.8708496     -0.2166624
H      -0.8602683     -1.8962047     -0.8721693
H       2.1819866      4.1561561      3.5181760
C       1.9181642      3.2414748      2.9963611
H       3.4540643      1.6734654      3.4114628
H      -1.0467413      3.7558618      1.4570121
C       2.5390278      2.0301275      2.9480199
H       0.2659408      4.9875901      1.3465299
C      -0.1871120      4.2050130      1.9660437
N       0.7909525      3.1469102      2.2074764
H       6.8744812      1.1183788     -0.2643813
H       6.8824578      2.8685406     -2.0489271
C       5.9371776      1.4048132     -0.7444956
C       5.9435130      2.3966400     -1.7561400
N       1.7744775      1.2253986      2.1252935
H      -0.5006632      4.6243439      2.9283022
C       0.7236946      1.9262955      1.6874482
C       4.7628971      0.7975785     -0.3624420
C       4.7643067      2.7578747     -2.3644671
H       1.9046476     -0.7422195      3.8712345
H       4.7744201      0.0329220      0.4166460
H       4.7527251      3.5208784     -3.1459902
C       2.0508153     -0.1420223      1.7899302
C       2.0983307     -1.0788596      2.8517691
C       3.5261634      1.1493890     -0.9762033
C       3.5360110      2.1484237     -1.9938642
H      -0.0844729      1.5607440      1.0477768
C       2.2874150      0.5411001     -0.6042238
C       2.3053205      2.5105475     -2.6099016
C       2.2636245     -0.4897328      0.4719402
C       2.3794818     -2.3910308      2.5771033
H       2.3123580      3.2789338     -3.3859582
H       2.4247093     -3.1252216      3.3830037
C       1.1260913      1.9176837     -2.2469040
C       1.1086024      0.9119937     -1.2344289
C       2.5381993     -1.8651889      0.1783231
C       2.6137628     -2.8151142      1.2398911
O      -0.0318858      0.3237664     -0.8560374
H       0.1797800      2.2011645     -2.7060997
C       2.7645486     -2.3066646     -1.1551532
C       2.9291298     -4.1688969      0.9393085
H       2.6955227     -1.5837070     -1.9692677
H       2.9857841     -4.8875237      1.7591056
C       3.0663034     -3.6228613     -1.4145921
C       3.1556142     -4.5633860     -0.3575992
H       3.2362230     -3.9488000     -2.4416273
H       3.3976589     -5.6036352     -0.5797431
H      -0.9456909     -0.1063532      2.9278858
C      -3.7748668     -1.1497020      1.7599627
C      -4.8705243     -0.3687523      1.1746790
C      -2.9308735      0.8888920      1.1373263
C      -1.3111750     -0.7449594      2.1067812
C      -4.3793807      0.8342783      0.7692744
N      -2.6223194     -0.3336366      1.6745675
O      -2.1489351      1.8210180      1.0192816
O      -3.7794397     -2.2409789      2.2889214
H      -5.8899584     -0.7427994      1.1220272
H      -0.6062649     -0.7116537      1.2630286
H      -4.9151267      1.7228136      0.4421031
H      -1.3940944     -1.7792933      2.4629552
          85

O      -1.8911108      1.8822600     -1.8908372
C      -3.1065397      1.7044034     -1.8222592
O      -3.9624493      2.7233322     -2.0066668
C      -3.3893291      3.9952785     -2.3011020
C      -4.5194689      4.9791733     -2.4951199
C      -3.7645083      0.4658389     -1.5057853
N      -3.0030771     -0.6218144     -1.3106311
C      -3.5534187     -1.7650893     -1.0433654
C      -2.7430041     -2.9256501     -0.6708796
C      -3.3605208     -4.1354591     -0.3203403
C      -2.5999870     -5.2415526      0.0564279
C      -1.2077408     -5.1547081      0.0934430
C      -0.5837397     -3.9488630     -0.2442952
C      -1.3392755     -2.8433022     -0.6189355
H      -2.7253582      4.2876888     -1.4739529
H      -2.7673865      3.9089353     -3.2045640
H      -5.1713750      4.6593824     -3.3196547
H      -4.1154584      5.9718558     -2.7347233
H      -5.1250566      5.0593528     -1.5818331
H      -0.8327723      0.7533090     -1.2639002
H      -4.8420228      0.4044991     -1.6921613
H      -4.6428112     -1.9123903     -1.1247282
H      -4.4510341     -4.2020436     -0.3385677
H      -3.0970737     -6.1756736      0.3255316
H      -0.6097146     -6.0196398      0.3869610
H       0.5039744     -3.8718164     -0.2165558
H      -0.8581765     -1.8957263     -0.8713136
H       2.1818352      4.1561413      3.5178736
C       1.9179991      3.2412530      2.9964280
H       3.4548593      1.6739863      3.4107652
H      -1.0480561      3.7541186      1.4588309
C       2.5393507      2.0301654      2.9478871
H       0.2640767      4.9865394      1.3477700
C      -0.1884315      4.2037579      1.9674430
N       0.7902405      3.1460635      2.2083915
H       6.8746757      1.1182527     -0.2659370
H       6.8815281      2.8687460     -2.0501304
C       5.9370606      1.4048181     -0.7453583
C       5.9427328      2.3968542     -1.7568509
N       1.7745239      1.2249578      2.1258438
H      -0.5016414      4.6229697      2.9298737
C       0.7230839      1.9252872      1.6887100
C       4.7630124      0.7976404     -0.3626695
C       4.7632236      2.7583452     -2.3644212
H       1.9040266     -0.7432255      3.8714095
H       4.7748419      0.0328202      0.4162466
H       4.7513099      3.5215071     -3.1457799
C       2.0509649     -0.1424160      1.7903795
C       2.0980245     -1.0795838      2.8519148
C       3.5260146      1.1496460     -0.9757662
C       3.5350633      2.1488166     -1.9932812
H      -0.0863173      1.5593958      1.0506804
C       2.2877150      0.5408854     -0.6035674
C       2.3039303      2.5106925     -2.6085686
C       2.2640128     -0.4900090      0.4724175
C       2.3790830     -2.3917125      2.5769326
H       2.3102540      3.2794441     -3.3842610
H       2.4239983     -3.1261244      3.3826469
C       1.1250026      1.9169689     -2.2455201
C       1.1087671      0.9108106     -1.2337314
C       2.5382014     -1.8653768      0.1783268
C       2.6136036     -2.8155214      1.2396669
O      -0.0304141      0.3196292     -0.8549583
H       0.1785671      2.2002549     -2.7045527
C       2.7642850     -2.3065334     -1.1553129
C       2.9290128     -4.1692209      0.9387333
H       2.6952324     -1.5833944     -1.9692662
H       2.9857321     -4.8880483      1.7583498
C       3.0659206     -3.6226846     -1.4150974
C       3.1554261     -4.5634056     -0.3582853
H       3.2356710     -3.9484241     -2.4422239
H       3.3975145     -5.6035945     -0.5806641
H      -0.9482547     -0.1053043      2.9344996
C      -3.7784929     -1.1472849      1.7566152
C      -4.8650484     -0.3721302      1.1600378
C      -2.9240364      0.8876927      1.1296224
C      -1.3134363     -0.7442976      2.1134389
C      -4.3664382      0.8283558      0.7377283
N      -2.6214956     -0.3304814      1.6752636
O      -2.1415999      1.8209165      1.0144289
O      -3.7809047     -2.2364091      2.2929181
H      -5.8854451     -0.7428556      1.1053492
H      -0.6048570     -0.7151120      1.2724417
H      -4.9036170      1.7235505      0.4331287
H      -1.4011627     -1.7775881      2.4716350
          85

O      -1.8971977      1.8781288     -1.8957276
C      -3.1109602      1.7076023     -1.8127847
O      -3.9650368      2.7249585     -1.9999787
C      -3.3907775      3.9948608     -2.3052958
C      -4.5201205      4.9793679     -2.4991317
C      -3.7706395      0.4714124     -1.4703319
N      -3.0012690     -0.6187782     -1.3009454
C      -3.5512081     -1.7626005     -1.0405975
C      -2.7407769     -2.9254820     -0.6723355
C      -3.3597215     -4.1343236     -0.3226241
C      -2.6000211     -5.2407322      0.0551391
C      -1.2078633     -5.1539948      0.0932301
C      -0.5826037     -3.9488846     -0.2445826
C      -1.3374600     -2.8430430     -0.6198760
H      -2.7222778      4.2898555     -1.4828059
H      -2.7737035      3.9009784     -3.2111727
H      -5.1753257      4.6574836     -3.3201931
H      -4.1152776      5.9704218     -2.7439060
H      -5.1221693      5.0639430     -1.5839416
H      -0.8321639      0.7446052     -1.2633373
H      -4.8432765      0.4036491     -1.6833611
H      -4.6404051     -1.9099508     -1.1214885
H      -4.4502620     -4.1997838     -0.3410485
H      -3.0975073     -6.1745133      0.3245009
H      -0.6104996     -6.0189848      0.3879649
H       0.5050816     -3.8725317     -0.2157705
H      -0.8560667     -1.8953264     -0.8710412
H       2.1813427      4.1561297      3.5175410
C       1.9175247      3.2410595      2.9964065
H       3.4552393      1.6744748      3.4101109
H      -1.0494615      3.7526065      1.4603175
C       2.5393276      2.0302153      2.9477012
H       0.2622396      4.9856085      1.3486925
C      -0.1898374      4.2026888      1.9685164
N       0.7893169      3.1453156      2.2090781
H       6.8747432      1.1178456     -0.2672316
H       6.8808192      2.8687340     -2.0510090
C       5.9368990      1.4046130     -0.7460757
C       5.9421083      2.3968929     -1.7573806
N       1.7742976      1.2245869      2.1262170
H      -0.5027232      4.6218430      2.9310822
C       0.7222766      1.9243940      1.6897096
C       4.7630000      0.7975507     -0.3629176
C       4.7623973      2.7587167     -2.3643380
H       1.9032125     -0.7440792      3.8714207
H       4.7750003      0.0325551      0.4158158
H       4.7502897      3.5220592     -3.1455126
C       2.0508422     -0.1427280      1.7906416
C       2.0975378     -1.0801832      2.8519087
C       3.5258260      1.1498646     -0.9754589
C       3.5342886      2.1491884     -1.9928148
H      -0.0883195      1.5581833      1.0532879
C       2.2878787      0.5407984     -0.6030989
C       2.3028196      2.5109708     -2.6074646
C       2.2641516     -0.4901960      0.4727060
C       2.3786208     -2.3922527      2.5766728
H       2.3086040      3.2800419     -3.3828357
H       2.4233054     -3.1268490      3.3822296
C       1.1240773      1.9166115     -2.2443696
C       1.1088495      0.9100297     -1.2331997
C       2.5380620     -1.8654837      0.1782117
C       2.6133889     -2.8158075      1.2393654
O      -0.0290908      0.3161992     -0.8539668
H       0.1776058      2.1998428     -2.7033502
C       2.7639208     -2.3063882     -1.1555621
C       2.9289077     -4.1694243      0.9381488
H       2.6948113     -1.5831115     -1.9693917
H       2.9857376     -4.8884013      1.7576264
C       3.0654978     -3.6224958     -1.4156299
C       3.1552408     -4.5633669     -0.3589622
H       3.2350952     -3.9480710     -2.4428340
H       3.3974109     -5.6034963     -0.5815298
H      -0.9496080     -0.1064650      2.9401665
C      -3.7828491     -1.1449537      1.7538951
C      -4.8598601     -0.3752116      1.1473476
C      -2.9171005      0.8864053      1.1229585
C      -1.3155554     -0.7443670      2.1184664
C      -4.3526487      0.8216563      0.7053164
N      -2.6209346     -0.3272499      1.6765170
O      -2.1346553      1.8212583      1.0111536
O      -3.7819523     -2.2326514      2.2963102
H      -5.8816047     -0.7416063      1.0913177
H      -0.6043145     -0.7178899      1.2794841
H      -4.8917226      1.7246430      0.4254501
H      -1.4077950     -1.7772066      2.4769580
          85

O      -1.9022559      1.8738175     -1.8997984
C      -3.1141480      1.7110369     -1.8029204
O      -3.9661700      2.7261096     -1.9950408
C      -3.3912321      3.9943387     -2.3100102
C      -4.5204724      4.9786196     -2.5035908
C      -3.7771105      0.4778246     -1.4317804
N      -2.9985895     -0.6156931     -1.2904640
C      -3.5481525     -1.7597150     -1.0382203
C      -2.7380162     -2.9254426     -0.6746183
C      -3.3586038     -4.1331769     -0.3259171
C      -2.5998364     -5.2396473      0.0539064
C      -1.2078140     -5.1527369      0.0940840
C      -0.5811365     -3.9486183     -0.2443762
C      -1.3352170     -2.8427957     -0.6213929
H      -2.7191037      4.2915739     -1.4914052
H      -2.7783472      3.8939274     -3.2178455
H      -5.1775881      4.6552948     -3.3225315
H      -4.1155507      5.9688737     -2.7513634
H      -5.1202052      5.0653737     -1.5871149
H      -0.8318556      0.7369243     -1.2626338
H      -4.8426896      0.4035618     -1.6770854
H      -4.6373877     -1.9066421     -1.1172207
H      -4.4491577     -4.1975549     -0.3450455
H      -3.0977512     -6.1730135      0.3236992
H      -0.6112109     -6.0175051      0.3911062
H       0.5064915     -3.8729026     -0.2139839
H      -0.8535689     -1.8949732     -0.8715709
H       2.1801352      4.1561227      3.5168596
C       1.9163770      3.2408111      2.9961201
H       3.4551912      1.6751256      3.4091005
H      -1.0520421      3.7507449      1.4625055
C       2.5387793      2.0302898      2.9472459
H       0.2592777      4.9840668      1.3489255
C      -0.1920728      4.2013662      1.9695902
N       0.7876051      3.1443290      2.2096840
H       6.8745912      1.1169616     -0.2686598
H       6.8800915      2.8684703     -2.0517913
C       5.9365472      1.4040982     -0.7468858
C       5.9414114      2.3967499     -1.7578726
N       1.7735197      1.2240967      2.1264906
H      -0.5039428      4.6209920      2.9322934
C       0.7208180      1.9232358      1.6906721
C       4.7627352      0.7972396     -0.3633096
C       4.7615356      2.7591088     -2.3641621
H       1.9019292     -0.7450716      3.8712704
H       4.7748350      0.0319875      0.4151620
H       4.7492992      3.5227256     -3.1450625
C       2.0502646     -0.1431229      1.7907679
C       2.0966617     -1.0808905      2.8517464
C       3.5254201      1.1500813     -0.9752225
C       3.5334313      2.1496694     -1.9923151
H      -0.0909222      1.5566015      1.0558983
C       2.2877633      0.5408525     -0.6027021
C       2.3017082      2.5115556     -2.6063422
C       2.2639267     -0.4903603      0.4728438
C       2.3779659     -2.3928550      2.5762457
H       2.3070733      3.2809515     -3.3813863
H       2.4225037     -3.1276513      3.3816257
C       1.1230927      1.9167137     -2.2432098
C       1.1086853      0.9096946     -1.2326378
C       2.5376878     -1.8655537      0.1779343
C       2.6130430     -2.8160797      1.2388865
O      -0.0280626      0.3134898     -0.8529105
H       0.1767019      2.2000652     -2.7022278
C       2.7633345     -2.3061919     -1.1559752
C       2.9287544     -4.1695919      0.9373703
H       2.6941145     -1.5827693     -1.9696712
H       2.9857645     -4.8887149      1.7567077
C       3.0648929     -3.6222463     -1.4163486
C       3.1549519     -4.5632806     -0.3598444
H       3.2343164     -3.9476377     -2.4436402
H       3.3972297     -5.6033399     -0.5826236
H      -0.9486794     -0.1093068      2.9446187
C      -3.7878941     -1.1421404      1.7525288
C      -4.8551643     -0.3762708      1.1400110
C      -2.9093023      0.8854640      1.1185548
C      -1.3168172     -0.7452730      2.1222516
C      -4.3376824      0.8167419      0.6743866
N      -2.6198826     -0.3236872      1.6786553
O      -2.1267110      1.8216768      1.0089043
O      -3.7821365     -2.2300746      2.2982335
H      -5.8783372     -0.7379668      1.0817410
H      -0.6040049     -0.7211748      1.2843839
H      -4.8781862      1.7284900      0.4258481
H      -1.4138331     -1.7779126      2.4802341
          85

O      -1.9036206      1.8704356     -1.9045382
C      -3.1132318      1.7141862     -1.7916646
O      -3.9647854      2.7251527     -1.9931702
C      -3.3903470      3.9926828     -2.3157870
C      -4.5204170      4.9757224     -2.5091262
C      -3.7774370      0.4862176     -1.3900817
N      -2.9934202     -0.6109423     -1.2731958
C      -3.5438711     -1.7559475     -1.0361862
C      -2.7350221     -2.9261065     -0.6803044
C      -3.3568195     -4.1331692     -0.3325771
C      -2.5986818     -5.2383020      0.0530931
C      -1.2069733     -5.1500847      0.0981612
C      -0.5792079     -3.9474502     -0.2432882
C      -1.3326719     -2.8430237     -0.6253609
H      -2.7161223      4.2922313     -1.4995880
H      -2.7801318      3.8880421     -3.2249137
H      -5.1758806      4.6538337     -3.3300277
H      -4.1160938      5.9670893     -2.7535996
H      -5.1214499      5.0592990     -1.5931774
H      -0.8320969      0.7324900     -1.2609988
H      -4.8373715      0.4065860     -1.6613222
H      -4.6332967     -1.9008513     -1.1150764
H      -4.4473065     -4.1974765     -0.3536993
H      -3.0968697     -6.1709874      0.3246093
H      -0.6110622     -6.0132821      0.4011141
H       0.5082377     -3.8714279     -0.2098408
H      -0.8508997     -1.8950968     -0.8748202
H       2.1777550      4.1562131      3.5146569
C       1.9138058      3.2404101      2.9948812
H       3.4543770      1.6761094      3.4064826
H      -1.0576062      3.7478090      1.4665926
C       2.5370118      2.0303217      2.9458081
H       0.2535503      4.9808369      1.3475648
C      -0.1964442      4.1993354      1.9707542
N       0.7837940      3.1426351      2.2103844
H       6.8737088      1.1150386     -0.2706634
H       6.8789390      2.8676419     -2.0526342
C       5.9354847      1.4029434     -0.7480671
C       5.9401833      2.3962435     -1.7584439
N       1.7709989      1.2230812      2.1267821
H      -0.5057051      4.6208508      2.9334778
C       0.7172201      1.9211648      1.6921350
C       4.7616515      0.7965198     -0.3640617
C       4.7601716      2.7596526     -2.3637964
H       1.8995404     -0.7466486      3.8708603
H       4.7737294      0.0308180      0.4139587
H       4.7478884      3.5237624     -3.1442111
C       2.0483676     -0.1439019      1.7906916
C       2.0948312     -1.0820558      2.8513102
C       3.5242587      1.1503619     -0.9750981
C       3.5320186      2.1504965     -1.9916730
H      -0.0957668      1.5539841      1.0592044
C       2.2868505      0.5411948     -0.6023633
C       2.3002088      2.5128592     -2.6051114
C       2.2627486     -0.4905559      0.4727233
C       2.3769911     -2.3937600      2.5755045
H       2.3053906      3.2825821     -3.3798287
H       2.4217310     -3.1287935      3.3806560
C       1.1216584      1.9177545     -2.2420025
C       1.1077866      0.9103029     -1.2318784
C       2.5368308     -1.8656105      0.1773677
C       2.6124784     -2.8164338      1.2380545
O      -0.0277761      0.3123080     -0.8515099
H       0.1754989      2.2013355     -2.7011917
C       2.7623749     -2.3059418     -1.1566746
C       2.9284583     -4.1698156      0.9361685
H       2.6929861     -1.5823316     -1.9701988
H       2.9857335     -4.8890987      1.7553488
C       3.0639127     -3.6219382     -1.4174392
C       3.1543151     -4.5632273     -0.3611865
H       3.2331030     -3.9470710     -2.4448517
H       3.3966040     -5.6032205     -0.5842638
H      -0.9472759     -0.1110885      2.9483139
C      -3.7911698     -1.1384633      1.7522865
C      -4.8517577     -0.3711446      1.1426720
C      -2.9003031      0.8857916      1.1173145
C      -1.3166631     -0.7469353      2.1261417
C      -4.3244153      0.8177187      0.6595091
N      -2.6171062     -0.3211647      1.6794524
O      -2.1158257      1.8212147      1.0046931
O      -3.7815048     -2.2290980      2.2957769
H      -5.8768935     -0.7269034      1.0839026
H      -0.6015085     -0.7270374      1.2899493
H      -4.8638617      1.7377469      0.4335342
H      -1.4187737     -1.7785697      2.4857729
          85

O      -1.8997330      1.8715572     -1.9125897
C      -3.1075188      1.7163245     -1.7834898
O      -3.9627386      2.7201134     -2.0004701
C      -3.3904152      3.9903300     -2.3180695
C      -4.5199556      4.9738449     -2.5116960
C      -3.7710033      0.4946687     -1.3449633
N      -2.9887370     -0.6113145     -1.2658992
C      -3.5417888     -1.7575624     -1.0447271
C      -2.7343545     -2.9298408     -0.6881975
C      -3.3559987     -4.1356634     -0.3362968
C      -2.5968190     -5.2384904      0.0547141
C      -1.2053251     -5.1484156      0.1014548
C      -0.5783684     -3.9459802     -0.2415923
C      -1.3326594     -2.8439615     -0.6282997
H      -2.7199707      4.2869349     -1.4977711
H      -2.7762100      3.8901066     -3.2247448
H      -5.1709943      4.6575211     -3.3380972
H      -4.1135772      5.9662284     -2.7480981
H      -5.1256010      5.0527343     -1.5984972
H      -0.8317230      0.7348228     -1.2615201
H      -4.8285213      0.4163363     -1.6299715
H      -4.6320949     -1.8987776     -1.1206328
H      -4.4463706     -4.2011527     -0.3584499
H      -3.0941499     -6.1706753      0.3293249
H      -0.6088515     -6.0098758      0.4082462
H       0.5087664     -3.8679884     -0.2051478
H      -0.8521844     -1.8952787     -0.8774289
H       2.1764723      4.1563100      3.5122092
C       1.9118477      3.2401089      2.9934792
H       3.4533984      1.6764543      3.4037990
H      -1.0618396      3.7453636      1.4689159
C       2.5352290      2.0301142      2.9443067
H       0.2491099      4.9781963      1.3455422
C      -0.1999483      4.1978747      1.9708961
N       0.7806269      3.1415121      2.2108083
H       6.8723655      1.1135820     -0.2720989
H       6.8776095      2.8668035     -2.0533369
C       5.9340403      1.4020563     -0.7489554
C       5.9387587      2.3957412     -1.7589263
N       1.7681306      1.2221113      2.1270064
H      -0.5075853      4.6212394      2.9333224
C       0.7135064      1.9196355      1.6936305
C       4.7601852      0.7959926     -0.3645769
C       4.7586606      2.7599516     -2.3635502
H       1.8979677     -0.7477546      3.8706009
H       4.7722719      0.0300263      0.4131768
H       4.7462672      3.5243868     -3.1436416
C       2.0462440     -0.1446530      1.7905539
C       2.0934467     -1.0829354      2.8510154
C       3.5228105      1.1504415     -0.9750584
C       3.5305830      2.1510276     -1.9912131
H      -0.1005323      1.5525417      1.0618400
C       2.2856035      0.5412261     -0.6023489
C       2.2990590      2.5140312     -2.6045554
C       2.2612944     -0.4908655      0.4725401
C       2.3765840     -2.3943983      2.5750752
H       2.3044738      3.2840805     -3.3789358
H       2.4218875     -3.1294937      3.3801379
C       1.1206577      1.9188100     -2.2418244
C       1.1069728      0.9112021     -1.2319248
C       2.5362009     -1.8657825      0.1770117
C       2.6121744     -2.8167765      1.2375527
O      -0.0285460      0.3142025     -0.8513057
H       0.1747980      2.2025569     -2.7012481
C       2.7618848     -2.3059126     -1.1570934
C       2.9281625     -4.1701193      0.9354122
H       2.6924790     -1.5821640     -1.9704969
H       2.9855242     -4.8895258      1.7544807
C       3.0633502     -3.6218833     -1.4181163
C       3.1537246     -4.5633761     -0.3620436
H       3.2324802     -3.9468340     -2.4455970
H       3.3958433     -5.6033657     -0.5853238
H      -0.9574823     -0.1041850      2.9509160
C      -3.7937924     -1.1388384      1.7464987
C      -4.8510505     -0.3695403      1.1449362
C      -2.8950535      0.8866878      1.1168874
C      -1.3193550     -0.7444032      2.1288393
C      -4.3172759      0.8234077      0.6694785
N      -2.6154322     -0.3218461      1.6710904
O      -2.1119027      1.8228368      0.9937873
O      -3.7854944     -2.2294547      2.2918038
H      -5.8770598     -0.7217208      1.0833262
H      -0.5975722     -0.7272749      1.2984927
H      -4.8555084      1.7469094      0.4553217
H      -1.4225887     -1.7745532      2.4923312
          85

O      -1.9035938      1.8669036     -1.9206940
C      -3.1116579      1.7115527     -1.7967082
O      -3.9657487      2.7174467     -2.0088519
C      -3.3916970      3.9885059     -2.3204941
C      -4.5202359      4.9732709     -2.5134312
C      -3.7762345      0.4874383     -1.3669704
N      -2.9916734     -0.6163644     -1.2805106
C      -3.5435988     -1.7620463     -1.0536082
C      -2.7353054     -2.9319484     -0.6915025
C      -3.3562939     -4.1375991     -0.3380294
C      -2.5966662     -5.2394488      0.0547082
C      -1.2052400     -5.1484455      0.1018202
C      -0.5789601     -3.9457181     -0.2414982
C      -1.3337911     -2.8446056     -0.6298795
H      -2.7229699      4.2816981     -1.4975919
H      -2.7756014      3.8908524     -3.2261416
H      -5.1703154      4.6591339     -3.3414177
H      -4.1128224      5.9658631     -2.7471488
H      -5.1271754      5.0508334     -1.6009570
H      -0.8326224      0.7310095     -1.2650439
H      -4.8326670      0.4076464     -1.6553360
H      -4.6333402     -1.9055953     -1.1318691
H      -4.4465994     -4.2039067     -0.3609978
H      -3.0935338     -6.1716944      0.3299579
H      -0.6083178     -6.0093432      0.4093175
H       0.5080948     -3.8669065     -0.2043169
H      -0.8537922     -1.8958970     -0.8797594
H       2.1756274      4.1562094      3.5114082
C       1.9108922      3.2398935      2.9929342
H       3.4526752      1.6763497      3.4029137
H      -1.0631983      3.7441317      1.4686730
C       2.5343071      2.0299036      2.9437264
H       0.2474439      4.9771483      1.3444580
C      -0.2013089      4.1971072      1.9703751
N       0.7794571      3.1410525      2.2106310
H       6.8716905      1.1128793     -0.2728405
H       6.8768607      2.8663936     -2.0538299
C       5.9333161      1.4016220     -0.7494367
C       5.9379954      2.3954555     -1.7592660
N       1.7669671      1.2217105      2.1268560
H      -0.5089395      4.6209576      2.9325802
C       0.7120110      1.9190456      1.6937939
C       4.7594145      0.7957328     -0.3648652
C       4.7578165      2.7599494     -2.3635629
H       1.8975491     -0.7481189      3.8704857
H       4.7715912      0.0296478      0.4127707
H       4.7453775      3.5244908     -3.1435481
C       2.0454644     -0.1449984      1.7904112
C       2.0930444     -1.0832463      2.8508889
C       3.5219271      1.1503894     -0.9750828
C       3.5297031      2.1510980     -1.9911094
H      -0.1023099      1.5518735      1.0621947
C       2.2846466      0.5410296     -0.6024820
C       2.2981105      2.5141435     -2.6043168
C       2.2606289     -0.4911013      0.4723801
C       2.3764626     -2.3946398      2.5748943
H       2.3034032      3.2844344     -3.3784562
H       2.4219169     -3.1297533      3.3799306
C       1.1197458      1.9185844     -2.2418908
C       1.1060105      0.9106121     -1.2323765
C       2.5359569     -1.8659115      0.1768394
C       2.6120487     -2.8169316      1.2373494
O      -0.0296076      0.3129099     -0.8524892
H       0.1738701      2.2022928     -2.7013601
C       2.7617100     -2.3059267     -1.1572839
C       2.9279934     -4.1702630      0.9351218
H       2.6922868     -1.5821369     -1.9706482
H       2.9853602     -4.8897218      1.7541427
C       3.0631455     -3.6218828     -1.4183829
C       3.1534617     -4.5634483     -0.3623709
H       3.2322684     -3.9467762     -2.4458818
H       3.3954986     -5.6034399     -0.5857274
H      -0.9681680     -0.1006737      2.9476885
C      -3.7998531     -1.1416818      1.7365014
C      -4.8555110     -0.3775747      1.1254534
C      -2.9026574      0.8833630      1.1037900
C      -1.3269737     -0.7426995      2.1256865
C      -4.3228985      0.8148493      0.6452433
N      -2.6225781     -0.3229905      1.6631591
O      -2.1205037      1.8208700      0.9851616
O      -3.7910501     -2.2298979      2.2867688
H      -5.8806557     -0.7320205      1.0618322
H      -0.6028073     -0.7260722      1.2973488
H      -4.8631643      1.7374291      0.4317970
H      -1.4300072     -1.7723500      2.4906399
          85

O      -1.9071980      1.8624296     -1.9290426
C      -3.1156066      1.7068464     -1.8099334
O      -3.9687503      2.7145287     -2.0177718
C      -3.3930765      3.9864971     -2.3229285
C      -4.5203669      4.9727494     -2.5155632
C      -3.7808310      0.4803574     -1.3881097
N      -2.9946288     -0.6217030     -1.2960891
C      -3.5454649     -1.7668892     -1.0634130
C      -2.7362099     -2.9340311     -0.6948411
C      -3.3564810     -4.1394295     -0.3393760
C      -2.5963413     -5.2403376      0.0548381
C      -1.2049637     -5.1484828      0.1019406
C      -0.5794588     -3.9453156     -0.2412893
C      -1.3348850     -2.8450613     -0.6310963
H      -2.7264319      4.2761390     -1.4971041
H      -2.7745969      3.8917102     -3.2272436
H      -5.1693833      4.6608225     -3.3452214
H      -4.1115993      5.9653789     -2.7467648
H      -5.1287638      5.0492008     -1.6039656
H      -0.8334970      0.7274956     -1.2686606
H      -4.8366181      0.3996577     -1.6782100
H      -4.6346602     -1.9128112     -1.1437752
H      -4.4467214     -4.2065728     -0.3630796
H      -3.0927090     -6.1726681      0.3307136
H      -0.6075246     -6.0089200      0.4097237
H       0.5075095     -3.8656339     -0.2034000
H      -0.8554135     -1.8962803     -0.8816475
H       2.1746920      4.1560956      3.5107987
C       1.9099086      3.2396598      2.9925574
H       3.4519942      1.6763125      3.4022222
H      -1.0645259      3.7428237      1.4684756
C       2.5334240      2.0297078      2.9433081
H       0.2458605      4.9759467      1.3432604
C      -0.2026189      4.1962890      1.9698451
N       0.7782953      3.1405353      2.2105771
H       6.8709729      1.1119474     -0.2738476
H       6.8760222      2.8658761     -2.0544621
C       5.9325268      1.4010569     -0.7500784
C       5.9371368      2.3951022     -1.7596992
N       1.7659108      1.2212956      2.1268213
H      -0.5102180      4.6207657      2.9317744
C       0.7105823      1.9183957      1.6940870
C       4.7585710      0.7954144     -0.3652495
C       4.7568542      2.7599985     -2.3635598
H       1.8972358     -0.7485777      3.8704006
H       4.7708411      0.0291606      0.4122172
H       4.7443691      3.5246966     -3.1433896
C       2.0448297     -0.1453492      1.7903272
C       2.0927230     -1.0836160      2.8507763
C       3.5209656      1.1503816     -0.9751072
C       3.5287019      2.1512614     -1.9909562
H      -0.1039717      1.5511418      1.0626065
C       2.2836637      0.5408279     -0.6025851
C       2.2970113      2.5144044     -2.6039383
C       2.2600390     -0.4913322      0.4722566
C       2.3762544     -2.3949628      2.5746556
H       2.3021329      3.2850261     -3.3777480
H       2.4217401     -3.1301426      3.3796284
C       1.1187362      1.9184237     -2.2418433
C       1.1050316      0.9099769     -1.2328319
C       2.5357495     -1.8660365      0.1766457
C       2.6118714     -2.8171309      1.2370823
O      -0.0307051      0.3115945     -0.8538318
H       0.1727918      2.2020952     -2.7012419
C       2.7615361     -2.3059128     -1.1575147
C       2.9277350     -4.1704526      0.9347287
H       2.6921227     -1.5820566     -1.9708195
H       2.9850740     -4.8899903      1.7536809
C       3.0628644     -3.6218649     -1.4187337
C       3.1531154     -4.5635345     -0.3628094
H       3.2319397     -3.9466800     -2.4462643
H       3.3950497     -5.6035270     -0.5862710
H      -0.9797084     -0.0967102      2.9445341
C      -3.8058015     -1.1447851      1.7260432
C      -4.8598446     -0.3861074      1.1054299
C      -2.9103381      0.8800895      1.0906628
C      -1.3348805     -0.7407447      2.1225366
C      -4.3287770      0.8066739      0.6232272
N      -2.6297968     -0.3243048      1.6546930
O      -2.1293999      1.8190390      0.9757890
O      -3.7971472     -2.2301632      2.2819673
H      -5.8840512     -0.7429118      1.0396138
H      -0.6080080     -0.7244889      1.2965153
H      -4.8710644      1.7280516      0.4095547
H      -1.4374849     -1.7698931      2.4890100
          85

O      -1.9110896      1.8580154     -1.9366278
C      -3.1198952      1.7022511     -1.8229953
O      -3.9717858      2.7120839     -2.0262016
C      -3.3942843      3.9848895     -2.3253826
C      -4.5204002      4.9725487     -2.5180321
C      -3.7854041      0.4730766     -1.4094410
N      -2.9978359     -0.6273610     -1.3129366
C      -3.5473432     -1.7719064     -1.0733111
C      -2.7368691     -2.9356900     -0.6972120
C      -3.3565939     -4.1407243     -0.3398207
C      -2.5960419     -5.2410430      0.0549188
C      -1.2046708     -5.1486292      0.1013643
C      -0.5797936     -3.9449082     -0.2411035
C      -1.3357287     -2.8450974     -0.6313284
H      -2.7296331      4.2712418     -1.4968144
H      -2.7735358      3.8925342     -3.2283837
H      -5.1687505      4.6619912     -3.3487314
H      -4.1104791      5.9650296     -2.7478526
H      -5.1298021      5.0486860     -1.6070791
H      -0.8341987      0.7238217     -1.2723879
H      -4.8418341      0.3917906     -1.6990224
H      -4.6360014     -1.9205174     -1.1549775
H      -4.4467821     -4.2084637     -0.3642018
H      -3.0919486     -6.1735626      0.3309917
H      -0.6067589     -6.0089871      0.4084474
H       0.5071220     -3.8646662     -0.2029300
H      -0.8567051     -1.8962616     -0.8824548
H       2.1735823      4.1560210      3.5106415
C       1.9089725      3.2394625      2.9925240
H       3.4514762      1.6764561      3.4019881
H      -1.0654639      3.7417292      1.4682420
C       2.5327426      2.0296365      2.9432244
H       0.2448730      4.9747713      1.3421736
C      -0.2035159      4.1955389      1.9693512
N       0.7773702      3.1399958      2.2106368
H       6.8702956      1.1107501     -0.2750020
H       6.8751918      2.8652465     -2.0550836
C       5.9317720      1.4003325     -0.7507895
C       5.9362708      2.3946639     -1.7601265
N       1.7652875      1.2209933      2.1268983
H      -0.5111014      4.6206594      2.9309919
C       0.7095517      1.9177718      1.6944131
C       4.7577273      0.7950548     -0.3657151
C       4.7559121      2.7600977     -2.3635572
H       1.8972342     -0.7490675      3.8704113
H       4.7700012      0.0285810      0.4115273
H       4.7434930      3.5249964     -3.1431905
C       2.0446497     -0.1455849      1.7903725
C       2.0926384     -1.0839529      2.8507239
C       3.5200523      1.1504968     -0.9751631
C       3.5276700      2.1515252     -1.9908577
H      -0.1051369      1.5503849      1.0629775
C       2.2828550      0.5406520     -0.6025847
C       2.2957825      2.5147305     -2.6034697
C       2.2598023     -0.4914958      0.4722522
C       2.3758042     -2.3953231      2.5743058
H       2.3005555      3.2857437     -3.3768884
H       2.4210046     -3.1306735      3.3791363
C       1.1176931      1.9182502     -2.2415475
C       1.1042262      0.9091797     -1.2332394
C       2.5357095     -1.8661066      0.1764437
C       2.6116223     -2.8173427      1.2367280
O      -0.0316281      0.3100012     -0.8553576
H       0.1715712      2.2018708     -2.7006728
C       2.7614005     -2.3058880     -1.1577678
C       2.9274313     -4.1706574      0.9342514
H       2.6919671     -1.5819835     -1.9710270
H       2.9846685     -4.8902687      1.7531452
C       3.0624922     -3.6218680     -1.4191359
C       3.1527734     -4.5636546     -0.3633159
H       3.2313412     -3.9466094     -2.4467269
H       3.3945926     -5.6036496     -0.5868896
H      -0.9906724     -0.0932984      2.9412562
C      -3.8117143     -1.1479664      1.7161343
C      -4.8637571     -0.3952168      1.0848577
C      -2.9177442      0.8767440      1.0777653
C      -1.3429763     -0.7387603      2.1191596
C      -4.3344278      0.7980372      0.6011226
N      -2.6372952     -0.3253151      1.6472593
O      -2.1386027      1.8175546      0.9669941
O      -3.8030657     -2.2302180      2.2781667
H      -5.8870161     -0.7543678      1.0164836
H      -0.6140703     -0.7222876      1.2948613
H      -4.8784099      1.7180930      0.3872468
H      -1.4448200     -1.7676735      2.4864703
          85

O      -1.9160772      1.8532269     -1.9412078
C      -3.1254904      1.6980570     -1.8364892
O      -3.9744385      2.7119249     -2.0311392
C      -3.3948628      3.9843620     -2.3276112
C      -4.5206795      4.9723077     -2.5196387
C      -3.7929511      0.4647962     -1.4394662
N      -3.0014785     -0.6313146     -1.3264054
C      -3.5491311     -1.7748977     -1.0781947
C      -2.7374797     -2.9362471     -0.6980947
C      -3.3568596     -4.1413740     -0.3405463
C      -2.5963164     -5.2415247      0.0545238
C      -1.2049132     -5.1489197      0.1005908
C      -0.5801684     -3.9448419     -0.2413514
C      -1.3363199     -2.8450406     -0.6314639
H      -2.7305320      4.2687364     -1.4981434
H      -2.7739447      3.8925166     -3.2305666
H      -5.1689818      4.6613881     -3.3502590
H      -4.1113751      5.9649540     -2.7497892
H      -5.1301685      5.0480301     -1.6086837
H      -0.8349564      0.7193008     -1.2755654
H      -4.8465517      0.3799701     -1.7354723
H      -4.6370953     -1.9268161     -1.1614536
H      -4.4470594     -4.2093587     -0.3652372
H      -3.0922162     -6.1739548      0.3309611
H      -0.6068305     -6.0093884      0.4070880
H       0.5068036     -3.8646003     -0.2035740
H      -0.8572353     -1.8963353     -0.8830346
H       2.1728665      4.1561009      3.5106677
C       1.9082483      3.2395068      2.9926092
H       3.4509235      1.6763981      3.4018921
H      -1.0652266      3.7407124      1.4680463
C       2.5322209      2.0297880      2.9431895
H       0.2446711      4.9740420      1.3414845
C      -0.2034487      4.1950081      1.9691036
N       0.7770467      3.1396302      2.2105932
H       6.8702026      1.1101433     -0.2754353
H       6.8746899      2.8644584     -2.0555354
C       5.9315765      1.3997530     -0.7510220
C       5.9356615      2.3942702     -1.7602267
N       1.7650976      1.2208655      2.1268577
H      -0.5117838      4.6203286      2.9304165
C       0.7091684      1.9173766      1.6942440
C       4.7572515      0.7948668     -0.3661965
C       4.7554594      2.7603472     -2.3636781
H       1.8981673     -0.7492573      3.8706417
H       4.7688314      0.0284666      0.4110954
H       4.7433302      3.5251341     -3.1434201
C       2.0448000     -0.1457213      1.7905354
C       2.0927272     -1.0839722      2.8507433
C       3.5195581      1.1506814     -0.9753081
C       3.5271350      2.1517256     -1.9909834
H      -0.1055323      1.5500112      1.0626434
C       2.2824092      0.5406118     -0.6024113
C       2.2949545      2.5145803     -2.6031866
C       2.2598857     -0.4916576      0.4724010
C       2.3752554     -2.3953187      2.5737058
H       2.2992748      3.2856244     -3.3765665
H       2.4205501     -3.1306696      3.3785120
C       1.1169218      1.9179081     -2.2412148
C       1.1036614      0.9082469     -1.2335817
C       2.5357386     -1.8661389      0.1764304
C       2.6114522     -2.8174317      1.2363799
O      -0.0322336      0.3081541     -0.8566224
H       0.1707164      2.2019628     -2.6999759
C       2.7613416     -2.3059429     -1.1577226
C       2.9274104     -4.1706914      0.9338915
H       2.6913574     -1.5820852     -1.9709475
H       2.9839089     -4.8902445      1.7528817
C       3.0623487     -3.6218886     -1.4193157
C       3.1527056     -4.5638082     -0.3636074
H       3.2301178     -3.9467038     -2.4470616
H       3.3936819     -5.6040388     -0.5870931
H      -0.9960842     -0.0930046      2.9374782
C      -3.8168714     -1.1500956      1.7102312
C      -4.8677983     -0.4019740      1.0688281
C      -2.9254898      0.8733958      1.0662812
C      -1.3490297     -0.7383192      2.1155358
C      -4.3395994      0.7881296      0.5730149
N      -2.6441785     -0.3257190      1.6435490
O      -2.1465326      1.8151072      0.9630977
O      -3.8058490     -2.2309856      2.2751841
H      -5.8899464     -0.7640988      0.9979905
H      -0.6204003     -0.7220140      1.2908700
H      -4.8857557      1.7072984      0.3583982
H      -1.4510548     -1.7671497      2.4829947
          85

O      -1.9209967      1.8481395     -1.9455600
C      -3.1312074      1.6933688     -1.8498026
O      -3.9778087      2.7110014     -2.0351360
C      -3.3961535      3.9831129     -2.3287390
C      -4.5213265      4.9721518     -2.5194761
C      -3.8000194      0.4561362     -1.4720908
N      -3.0054344     -0.6346519     -1.3392379
C      -3.5510504     -1.7773320     -1.0815631
C      -2.7386260     -2.9369255     -0.6987040
C      -3.3575190     -4.1425608     -0.3419869
C      -2.5970561     -5.2423932      0.0536614
C      -1.2057142     -5.1493716      0.1007416
C      -0.5812908     -3.9453871     -0.2420278
C      -1.3374945     -2.8458733     -0.6332440
H      -2.7313237      4.2659122     -1.4991993
H      -2.7755622      3.8915522     -3.2319961
H      -5.1705593      4.6619941     -3.3496559
H      -4.1116009      5.9647694     -2.7490475
H      -5.1300694      5.0474761     -1.6079876
H      -0.8361358      0.7147928     -1.2778565
H      -4.8545613      0.3698477     -1.7649015
H      -4.6380570     -1.9324327     -1.1696821
H      -4.4476549     -4.2109228     -0.3672866
H      -3.0928425     -6.1751008      0.3293894
H      -0.6075562     -6.0094788      0.4080268
H       0.5056504     -3.8649190     -0.2039374
H      -0.8583976     -1.8974897     -0.8857970
H       2.1727139      4.1558572      3.5102677
C       1.9082567      3.2392731      2.9921154
H       3.4507089      1.6761821      3.4016455
H      -1.0658357      3.7410581      1.4668208
C       2.5320213      2.0294288      2.9428313
H       0.2441445      4.9744271      1.3414988
C      -0.2041609      4.1950244      1.9684959
N       0.7768656      3.1397661      2.2099818
H       6.8699009      1.1104488     -0.2752587
H       6.8747499      2.8650598     -2.0553650
C       5.9313770      1.4001269     -0.7509861
C       5.9358468      2.3944825     -1.7603333
N       1.7647040      1.2208219      2.1264185
H      -0.5123953      4.6199210      2.9300122
C       0.7088869      1.9175321      1.6937244
C       4.7572533      0.7949085     -0.3658762
C       4.7554390      2.7599153     -2.3637086
H       1.8970528     -0.7490710      3.8702734
H       4.7696395      0.0284049      0.4113408
H       4.7430495      3.5248004     -3.1433547
C       2.0443112     -0.1457667      1.7901375
C       2.0924936     -1.0839923      2.8506086
C       3.5193837      1.1503598     -0.9752470
C       3.5270602      2.1513206     -1.9909900
H      -0.1056528      1.5497508      1.0620891
C       2.2818892      0.5403906     -0.6028240
C       2.2948952      2.5141687     -2.6034838
C       2.2593776     -0.4916987      0.4720317
C       2.3757804     -2.3953454      2.5742280
H       2.2993603      3.2852954     -3.3767969
H       2.4209827     -3.1306734      3.3790769
C       1.1166982      1.9172748     -2.2417882
C       1.1029394      0.9077636     -1.2338810
C       2.5355751     -1.8662086      0.1763274
C       2.6115858     -2.8173760      1.2366590
O      -0.0329201      0.3064476     -0.8571978
H       0.1704124      2.2007574     -2.7009428
C       2.7613087     -2.3059448     -1.1578601
C       2.9274016     -4.1706838      0.9342141
H       2.6918077     -1.5820760     -1.9711431
H       2.9846581     -4.8902816      1.7531154
C       3.0624526     -3.6219096     -1.4191839
C       3.1527238     -4.5636820     -0.3633536
H       3.2313216     -3.9466654     -2.4467653
H       3.3945412     -5.6036766     -0.5869253
H      -1.0010323     -0.0926259      2.9339818
C      -3.8213233     -1.1516716      1.7034280
C      -4.8714976     -0.4088698      1.0515798
C      -2.9328365      0.8701177      1.0547338
C      -1.3540454     -0.7381374      2.1122881
C      -4.3465088      0.7788587      0.5465378
N      -2.6503802     -0.3262654      1.6397040
O      -2.1541749      1.8126373      0.9599548
O      -3.8090923     -2.2309199      2.2711660
H      -5.8929391     -0.7736479      0.9824278
H      -0.6255925     -0.7217517      1.2874232
H      -4.8946188      1.6967539      0.3327100
H      -1.4560157     -1.7669136      2.4799600
          85

O      -1.9241446      1.8444093     -1.9527460
C      -3.1348770      1.6875952     -1.8637894
O      -3.9816593      2.7072416     -2.0427857
C      -3.3986385      3.9803662     -2.3289950
C      -4.5220939      4.9718687     -2.5177605
C      -3.8024622      0.4476527     -1.4988317
N      -3.0089559     -0.6409077     -1.3564973
C      -3.5538966     -1.7827982     -1.0913068
C      -2.7405178     -2.9390774     -0.7015707
C      -3.3586957     -4.1446719     -0.3432373
C      -2.5978776     -5.2438168      0.0533242
C      -1.2065863     -5.1500762      0.1010369
C      -0.5827865     -3.9459439     -0.2424218
C      -1.3393558     -2.8471693     -0.6351681
H      -2.7350916      4.2588442     -1.4969740
H      -2.7762961      3.8926390     -3.2314594
H      -5.1715799      4.6647411     -3.3488798
H      -4.1104381      5.9642201     -2.7451023
H      -5.1311364      5.0465012     -1.6064016
H      -0.8366311      0.7131217     -1.2812593
H      -4.8573946      0.3615259     -1.7875457
H      -4.6403110     -1.9403773     -1.1816288
H      -4.4487654     -4.2138759     -0.3696321
H      -3.0933354     -6.1767094      0.3290672
H      -0.6080793     -6.0096999      0.4089747
H       0.5041445     -3.8649009     -0.2041362
H      -0.8604738     -1.8990906     -0.8892748
H       2.1728505      4.1558582      3.5088306
C       1.9079554      3.2392865      2.9908793
H       3.4499557      1.6756767      3.4003048
H      -1.0663916      3.7406773      1.4654864
C       2.5312652      2.0291850      2.9416840
H       0.2428754      4.9748323      1.3411951
C      -0.2051169      4.1948940      1.9677325
N       0.7763480      3.1399831      2.2090105
H       6.8694489      1.1113744     -0.2742839
H       6.8744174      2.8653891     -2.0550631
C       5.9310022      1.4006406     -0.7504178
C       5.9355720      2.3946420     -1.7601157
N       1.7634698      1.2206755      2.1256690
H      -0.5140315      4.6191478      2.9293100
C       0.7077169      1.9176320      1.6931075
C       4.7569166      0.7951495     -0.3654243
C       4.7551697      2.7594445     -2.3638749
H       1.8964874     -0.7486352      3.8700777
H       4.7694284      0.0288878      0.4120414
H       4.7426735      3.5240447     -3.1437988
C       2.0431067     -0.1459806      1.7897109
C       2.0919813     -1.0837987      2.8505060
C       3.5189935      1.1499711     -0.9752053
C       3.5268372      2.1506562     -1.9912014
H      -0.1068992      1.5499877      1.0613738
C       2.2812590      0.5399102     -0.6032114
C       2.2947607      2.5132324     -2.6040936
C       2.2585513     -0.4920328      0.4717295
C       2.3762786     -2.3950166      2.5745277
H       2.2994225      3.2842497     -3.3775140
H       2.4222058     -3.1300510      3.3796044
C       1.1164290      1.9163875     -2.2427161
C       1.1023910      0.9070556     -1.2346734
C       2.5353309     -1.8664400      0.1763865
C       2.6118257     -2.8172859      1.2369863
O      -0.0338919      0.3060971     -0.8582531
H       0.1701295      2.1997153     -2.7020407
C       2.7613371     -2.3061858     -1.1577307
C       2.9277488     -4.1705809      0.9347101
H       2.6917498     -1.5824032     -1.9710788
H       2.9851788     -4.8900902      1.7536749
C       3.0628509     -3.6220842     -1.4188292
C       3.1530527     -4.5636745     -0.3628344
H       3.2320187     -3.9469663     -2.4463196
H       3.3949819     -5.6036740     -0.5862578
H      -1.0128802     -0.0882423      2.9302273
C      -3.8254086     -1.1549776      1.6922913
C      -4.8752474     -0.4169070      1.0317735
C      -2.9411325      0.8675799      1.0431074
C      -1.3617328     -0.7359234      2.1085134
C      -4.3534498      0.7727880      0.5338049
N      -2.6573978     -0.3279021      1.6308506
O      -2.1640201      1.8113734      0.9515053
O      -3.8157673     -2.2309460      2.2653126
H      -5.8955004     -0.7844659      0.9599322
H      -0.6307594     -0.7194030      1.2858909
H      -4.9030817      1.6874298      0.3097349
H      -1.4624747     -1.7642934      2.4775846
          85

O      -1.9262506      1.8411828     -1.9598887
C      -3.1376191      1.6817397     -1.8784151
O      -3.9846737      2.7032420     -2.0516236
C      -3.4007055      3.9775708     -2.3294676
C      -4.5229763      4.9709230     -2.5161281
C      -3.8038777      0.4390109     -1.5286917
N      -3.0120686     -0.6466955     -1.3725526
C      -3.5564107     -1.7882030     -1.1013363
C      -2.7424480     -2.9415226     -0.7053520
C      -3.3597726     -4.1471265     -0.3450773
C      -2.5984960     -5.2452052      0.0533443
C      -1.2072463     -5.1507047      0.1015070
C      -0.5842415     -3.9462861     -0.2425266
C      -1.3412873     -2.8484963     -0.6372052
H      -2.7389503      4.2517025     -1.4945831
H      -2.7761903      3.8945154     -3.2309136
H      -5.1719043      4.6671533     -3.3489294
H      -4.1099794      5.9635321     -2.7399598
H      -5.1330397      5.0434782     -1.6052680
H      -0.8373508      0.7121740     -1.2847703
H      -4.8608811      0.3535063     -1.8093443
H      -4.6422153     -1.9479394     -1.1950057
H      -4.4497708     -4.2173338     -0.3724143
H      -3.0935779     -6.1781044      0.3298117
H      -0.6083217     -6.0097082      0.4103401
H       0.5026365     -3.8643492     -0.2035652
H      -0.8627440     -1.9005431     -0.8924184
H       2.1725845      4.1560239      3.5071157
C       1.9073128      3.2393531      2.9895309
H       3.4491184      1.6754674      3.3987535
H      -1.0673250      3.7403251      1.4643252
C       2.5303068      2.0290805      2.9404471
H       0.2414893      4.9749137      1.3405790
C      -0.2062650      4.1946860      1.9669120
N       0.7754377      3.1400233      2.2080673
H       6.8687403      1.1119472     -0.2733638
H       6.8739556      2.8654723     -2.0546716
C       5.9303937      1.4009206     -0.7498755
C       5.9351157      2.3946360     -1.7598476
N       1.7620260      1.2204917      2.1250055
H      -0.5156023      4.6186031      2.9284976
C       0.7061843      1.9175172      1.6926441
C       4.7562796      0.7952819     -0.3650691
C       4.7547896      2.7590253     -2.3640097
H       1.8959387     -0.7483486      3.8699080
H       4.7687876      0.0292231      0.4126047
H       4.7423287      3.5234046     -3.1441513
C       2.0419339     -0.1461797      1.7893400
C       2.0914486     -1.0836728      2.8503943
C       3.5183861      1.1496660     -0.9752670
C       3.5264553      2.1501233     -1.9914854
H      -0.1084510      1.5498967      1.0607989
C       2.2804561      0.5395195     -0.6035771
C       2.2944926      2.5124748     -2.6047808
C       2.2577392     -0.4923174      0.4714526
C       2.3764850     -2.3947886      2.5746819
H       2.2993158      3.2833721     -3.3783208
H       2.4229292     -3.1296152      3.3799188
C       1.1160784      1.9156801     -2.2436212
C       1.1016707      0.9064796     -1.2354430
C       2.5351452     -1.8666378      0.1764044
C       2.6119821     -2.8172472      1.2371915
O      -0.0351269      0.3059507     -0.8595451
H       0.1697585      2.1988542     -2.7030794
C       2.7613514     -2.3064759     -1.1576321
C       2.9280913     -4.1705330      0.9351050
H       2.6916094     -1.5828153     -1.9710725
H       2.9856572     -4.8899261      1.7541615
C       3.0631242     -3.6223429     -1.4185289
C       3.1533785     -4.5637712     -0.3623990
H       3.2323966     -3.9473462     -2.4459629
H       3.3954010     -5.6037788     -0.5856820
H      -1.0241434     -0.0836284      2.9257899
C      -3.8294420     -1.1581942      1.6820943
C      -4.8802557     -0.4233264      1.0149631
C      -2.9498987      0.8651388      1.0317905
C      -1.3689790     -0.7339371      2.1045188
C      -4.3624398      0.7673051      0.5223282
N      -2.6643089     -0.3299456      1.6219721
O      -2.1738430      1.8097220      0.9430145
O      -3.8218189     -2.2318502      2.2583269
H      -5.8993754     -0.7938784      0.9417635
H      -0.6356934     -0.7176393      1.2839462
H      -4.9128177      1.6783360      0.2870665
H      -1.4684302     -1.7617174      2.4755139
          85

O      -1.9278064      1.8381927     -1.9663899
C      -3.1399338      1.6757521     -1.8935994
O      -3.9872461      2.6993674     -2.0607339
C      -3.4024330      3.9748499     -2.3301117
C      -4.5238203      4.9697116     -2.5148178
C      -3.8046826      0.4300900     -1.5617335
N      -3.0152639     -0.6522677     -1.3886527
C      -3.5588661     -1.7934020     -1.1109739
C      -2.7442972     -2.9437102     -0.7089424
C      -3.3606861     -4.1495087     -0.3470188
C      -2.5989652     -5.2465005      0.0533168
C      -1.2077599     -5.1512230      0.1021519
C      -0.5855923     -3.9465118     -0.2425181
C      -1.3430925     -2.8497049     -0.6391574
H      -2.7426450      4.2448667     -1.4923290
H      -2.7756068      3.8966249     -3.2304419
H      -5.1718274      4.6691678     -3.3495219
H      -4.1099142      5.9628238     -2.7347825
H      -5.1352098      5.0396696     -1.6046233
H      -0.8382106      0.7117576     -1.2881884
H      -4.8642468      0.3456726     -1.8314917
H      -4.6440566     -1.9553889     -1.2080312
H      -4.4506042     -4.2208221     -0.3754434
H      -3.0937018     -6.1794265      0.3304010
H      -0.6084089     -6.0095648      0.4119743
H       0.5012296     -3.8636604     -0.2028954
H      -0.8648270     -1.9019212     -0.8955317
H       2.1720960      4.1562246      3.5054387
C       1.9065226      3.2394240      2.9882364
H       3.4482644      1.6753985      3.3972806
H      -1.0684288      3.7399575      1.4632418
C       2.5293031      2.0290279      2.9392767
H       0.2400572      4.9747917      1.3397761
C      -0.2075024      4.1944275      1.9660636
N       0.7743717      3.1399698      2.2072063
H       6.8679599      1.1122541     -0.2726098
H       6.8734738      2.8654304     -2.0543078
C       5.9297161      1.4010452     -0.7494372
C       5.9346177      2.3945473     -1.7596074
N       1.7606003      1.2202841      2.1244347
H      -0.5171403      4.6181943      2.9276124
C       0.7046358      1.9172929      1.6922383
C       4.7555420      0.7953312     -0.3648116
C       4.7543702      2.7586495     -2.3641096
H       1.8953542     -0.7481667      3.8697286
H       4.7680225      0.0294217      0.4130161
H       4.7419785      3.5228627     -3.1444160
C       2.0408231     -0.1463904      1.7889923
C       2.0908906     -1.0836126      2.8502623
C       3.5176870      1.1494059     -0.9753568
C       3.5260049      2.1496865     -1.9917466
H      -0.1098539      1.5496180      1.0601294
C       2.2795634      0.5391944     -0.6039335
C       2.2941435      2.5118691     -2.6053975
C       2.2569275     -0.4925679      0.4711687
C       2.3765642     -2.3946370      2.5747640
H       2.2991190      3.2826753     -3.3790297
H       2.4234200     -3.1292987      3.3801276
C       1.1156523      1.9151200     -2.2444555
C       1.1008425      0.9059855     -1.2361794
C       2.5349472     -1.8668105      0.1763803
C       2.6120760     -2.8172302      1.2373205
O      -0.0364910      0.3058883     -0.8609304
H       0.1692977      2.1981454     -2.7040123
C       2.7613308     -2.3067376     -1.1575830
C       2.9283672     -4.1705055      0.9354065
H       2.6914474     -1.5831879     -1.9711077
H       2.9860597     -4.8897909      1.7545476
C       3.0633100     -3.6225843     -1.4183034
C       3.1536329     -4.5638736     -0.3620607
H       3.2326507     -3.9476931     -2.4456918
H       3.3957424     -5.6038862     -0.5852243
H      -1.0345817     -0.0794169      2.9208848
C      -3.8328787     -1.1613406      1.6726629
C      -4.8856592     -0.4288562      1.0000547
C      -2.9588476      0.8628199      1.0212883
C      -1.3757266     -0.7323185      2.1002025
C      -4.3724779      0.7626818      0.5138088
N      -2.6709940     -0.3322188      1.6135005
O      -2.1835368      1.8077651      0.9349669
O      -3.8274677     -2.2330675      2.2510674
H      -5.9035944     -0.8026293      0.9259104
H      -0.6405937     -0.7162407      1.2812845
H      -4.9230887      1.6694073      0.2645817
H      -1.4737313     -1.7594968      2.4731669
          85

O      -1.9189700      1.8438037     -1.9669392
C      -3.1320899      1.6733747     -1.8960428
O      -3.9848716      2.6945418     -2.0679167
C      -3.4027552      3.9723978     -2.3280342
C      -4.5242949      4.9676516     -2.5115505
C      -3.7903504      0.4295015     -1.5699143
N      -3.0134518     -0.6540984     -1.3904417
C      -3.5595783     -1.7968573     -1.1174047
C      -2.7458018     -2.9457440     -0.7127023
C      -3.3611006     -4.1518846     -0.3483725
C      -2.5985306     -5.2474125      0.0543866
C      -1.2073735     -5.1513583      0.1041749
C      -0.5863477     -3.9463303     -0.2414484
C      -1.3443184     -2.8509115     -0.6404724
H      -2.7464977      4.2397033     -1.4863624
H      -2.7717205      3.9020556     -3.2263864
H      -5.1693521      4.6715801     -3.3502561
H      -4.1098203      5.9621287     -2.7247468
H      -5.1390039      5.0329002     -1.6031585
H      -0.8382421      0.7212296     -1.2884410
H      -4.8583774      0.3522315     -1.8090863
H      -4.6452733     -1.9562294     -1.2159799
H      -4.4509438     -4.2246034     -0.3779422
H      -3.0928304     -6.1802543      0.3326888
H      -0.6074952     -6.0087134      0.4157024
H       0.5003635     -3.8620884     -0.2006935
H      -0.8665755     -1.9030261     -0.8975826
H       2.1716569      4.1567053      3.5031363
C       1.9055818      3.2396955      2.9865565
H       3.4474321      1.6756832      3.3952503
H      -1.0701519      3.7400472      1.4627400
C       2.5281684      2.0291898      2.9377492
H       0.2382706      4.9747100      1.3388922
C      -0.2091100      4.1944236      1.9654044
N       0.7728235      3.1399773      2.2064262
H       6.8669857      1.1127608     -0.2712120
H       6.8731609      2.8653816     -2.0534044
C       5.9289311      1.4012692     -0.7485951
C       5.9342267      2.3944692     -1.7590016
N       1.7587873      1.2201054      2.1239076
H      -0.5185373      4.6183071      2.9269690
C       0.7027077      1.9170863      1.6920117
C       4.7546777      0.7954329     -0.3643453
C       4.7541671      2.7582391     -2.3640739
H       1.8944371     -0.7479313      3.8695201
H       4.7669762      0.0297391      0.4137052
H       4.7419095      3.5222516     -3.1445842
C       2.0393426     -0.1465705      1.7886037
C       2.0899900     -1.0835194      2.8500994
C       3.5170751      1.1491212     -0.9754873
C       3.5258477      2.1492545     -1.9920401
H      -0.1112644      1.5496085      1.0591921
C       2.2788405      0.5390166     -0.6043322
C       2.2944215      2.5115725     -2.6063787
C       2.2559212     -0.4927368      0.4708364
C       2.3765424     -2.3944222      2.5748859
H       2.2999950      3.2821239     -3.3802669
H       2.4239959     -3.1288689      3.3804152
C       1.1158641      1.9153723     -2.2455922
C       1.1004454      0.9066940     -1.2367283
C       2.5346826     -1.8669628      0.1763891
C       2.6121808     -2.8171741      1.2375111
O      -0.0378611      0.3095073     -0.8616042
H       0.1695632      2.1983346     -2.7051477
C       2.7613133     -2.3070778     -1.1574713
C       2.9287889     -4.1704321      0.9358459
H       2.6912342     -1.5836668     -1.9710996
H       2.9866607     -4.8895580      1.7551163
C       3.0635648     -3.6229101     -1.4179564
C       3.1540339     -4.5640025     -0.3615594
H       3.2329592     -3.9481676     -2.4452893
H       3.3962752     -5.6040230     -0.5845474
H      -1.0396377     -0.0744822      2.9187159
C      -3.8272001     -1.1628911      1.6710346
C      -4.8887359     -0.4222448      1.0111527
C      -2.9610455      0.8655781      1.0269673
C      -1.3749746     -0.7312180      2.0986628
C      -4.3816884      0.7748285      0.5602634
N      -2.6694925     -0.3357403      1.6078772
O      -2.1852083      1.8082098      0.9302288
O      -3.8299428     -2.2351281      2.2445844
H      -5.9066086     -0.7964137      0.9393317
H      -0.6377076     -0.7150586      1.2818594
H      -4.9284146      1.6741332      0.2746384
H      -1.4697365     -1.7577434      2.4741617
          85

O      -1.9090251      1.8492097     -1.9626776
C      -3.1228771      1.6724515     -1.8994365
O      -3.9787005      2.6910560     -2.0773054
C      -3.4005507      3.9720319     -2.3259058
C      -4.5252793      4.9642813     -2.5066247
C      -3.7823737      0.4294587     -1.5823568
N      -3.0115806     -0.6554013     -1.3904558
C      -3.5594259     -1.7982040     -1.1200501
C      -2.7471214     -2.9478589     -0.7157141
C      -3.3615599     -4.1546800     -0.3510441
C      -2.5983840     -5.2486516      0.0550855
C      -1.2073626     -5.1513719      0.1074992
C      -0.5871620     -3.9464065     -0.2399332
C      -1.3455312     -2.8525497     -0.6421747
H      -2.7488705      4.2363999     -1.4796300
H      -2.7653189      3.9113953     -3.2221455
H      -5.1654983      4.6722381     -3.3504828
H      -4.1140624      5.9622150     -2.7100485
H      -5.1443056      5.0197044     -1.6004024
H      -0.8391468      0.7317839     -1.2884645
H      -4.8509304      0.3582403     -1.8085256
H      -4.6460358     -1.9544084     -1.2161438
H      -4.4512767     -4.2289279     -0.3820297
H      -3.0923599     -6.1814208      0.3342921
H      -0.6071936     -6.0074127      0.4220887
H       0.4994186     -3.8608383     -0.1977413
H      -0.8681958     -1.9045871     -0.8999468
H       2.1701981      4.1572854      3.5005924
C       1.9038564      3.2400846      2.9844921
H       3.4457791      1.6761531      3.3931690
H      -1.0723766      3.7405373      1.4616385
C       2.5263464      2.0295413      2.9359198
H       0.2360952      4.9750347      1.3377362
C      -0.2111942      4.1946675      1.9642090
N       0.7707525      3.1401347      2.2048841
H       6.8658022      1.1133039     -0.2686373
H       6.8734437      2.8652343     -2.0514741
C       5.9281574      1.4014495     -0.7470520
C       5.9343163      2.3942736     -1.7577687
N       1.7565380      1.2201317      2.1228318
H      -0.5203877      4.6183959      2.9259205
C       0.7005429      1.9171169      1.6907552
C       4.7536734      0.7954169     -0.3636799
C       4.7547022      2.7575957     -2.3639452
H       1.8928605     -0.7473045      3.8689776
H       4.7655346      0.0300249      0.4146813
H       4.7428470      3.5213491     -3.1447188
C       2.0374198     -0.1465629      1.7878296
C       2.0886357     -1.0831351      2.8496742
C       3.5165069      1.1486955     -0.9758686
C       3.5262824      2.1486347     -1.9926336
H      -0.1127841      1.5496480      1.0572280
C       2.2778199      0.5391233     -0.6051024
C       2.2955908      2.5111854     -2.6081524
C       2.2544530     -0.4927369      0.4701290
C       2.3762882     -2.3939070      2.5749804
H       2.3021630      3.2811039     -3.3826700
H       2.4243543     -3.1280401      3.3807624
C       1.1166690      1.9160847     -2.2474654
C       1.0997622      0.9082808     -1.2374815
C       2.5341550     -1.8669961      0.1762824
C       2.6122094     -2.8168810      1.2377293
O      -0.0398054      0.3144362     -0.8622712
H       0.1708901      2.1992799     -2.7077941
C       2.7611645     -2.3075116     -1.1573709
C       2.9294160     -4.1701162      0.9365464
H       2.6908127     -1.5843841     -1.9712305
H       2.9876161     -4.8889184      1.7560794
C       3.0639244     -3.6233272     -1.4174060
C       3.1547013     -4.5640686     -0.3607337
H       3.2334796     -3.9488391     -2.4446325
H       3.3972894     -5.6040792     -0.5833942
H      -1.0357275     -0.0758512      2.9133338
C      -3.8238517     -1.1635688      1.6746088
C      -4.8946746     -0.4118188      1.0351966
C      -2.9631075      0.8681298      1.0371934
C      -1.3704479     -0.7330957      2.0936277
C      -4.3915059      0.7880072      0.5950685
N      -2.6666169     -0.3389452      1.6059352
O      -2.1858092      1.8080678      0.9326685
O      -3.8272312     -2.2414298      2.2361821
H      -5.9114552     -0.7892288      0.9622496
H      -0.6349126     -0.7150143      1.2754959
H      -4.9325242      1.6832017      0.3017168
H      -1.4625965     -1.7599194      2.4688325
          85

O      -1.9019890      1.8528211     -1.9567882
C      -3.1174383      1.6694921     -1.9061402
O      -3.9745226      2.6898214     -2.0842922
C      -3.3983553      3.9719777     -2.3241394
C      -4.5253042      4.9623203     -2.5033730
C      -3.7734596      0.4254845     -1.6114635
N      -3.0120507     -0.6566250     -1.3950117
C      -3.5604160     -1.7997856     -1.1205260
C      -2.7482543     -2.9480783     -0.7156884
C      -3.3617066     -4.1561457     -0.3519334
C      -2.5983459     -5.2494926      0.0551468
C      -1.2073931     -5.1517485      0.1094281
C      -0.5878099     -3.9466236     -0.2388331
C      -1.3461778     -2.8533532     -0.6423754
H      -2.7496980      4.2345793     -1.4751632
H      -2.7602865      3.9182454     -3.2187016
H      -5.1624862      4.6723691     -3.3500875
H      -4.1169437      5.9623912     -2.7008575
H      -5.1470259      5.0113758     -1.5988135
H      -0.8402098      0.7406789     -1.2887300
H      -4.8508389      0.3608016     -1.8046110
H      -4.6473915     -1.9551449     -1.2172127
H      -4.4513407     -4.2314793     -0.3842196
H      -3.0923212     -6.1824673      0.3338465
H      -0.6071019     -6.0072021      0.4252592
H       0.4987471     -3.8604788     -0.1963551
H      -0.8686510     -1.9057309     -0.9012157
H       2.1685249      4.1576087      3.4995409
C       1.9023487      3.2403853      2.9833989
H       3.4442034      1.6764927      3.3924892
H      -1.0735742      3.7413796      1.4600373
C       2.5248789      2.0298574      2.9350047
H       0.2350235      4.9755982      1.3368992
C      -0.2124390      4.1950632      1.9630237
N       0.7693890      3.1403944      2.2035943
H       6.8651124      1.1133739     -0.2665891
H       6.8740437      2.8649551     -2.0497747
C       5.9278276      1.4013639     -0.7458030
C       5.9347357      2.3939738     -1.7566783
N       1.7552548      1.2203829      2.1218724
H      -0.5218118      4.6184585      2.9248222
C       0.6995506      1.9174248      1.6892318
C       4.7530803      0.7952674     -0.3632287
C       4.7555064      2.7570389     -2.3637867
H       1.8917706     -0.7466029      3.8684645
H       4.7644945      0.0300322      0.4153002
H       4.7441130      3.5206344     -3.1447281
C       2.0362507     -0.1463640      1.7871168
C       2.0876486     -1.0826368      2.8492416
C       3.5162872      1.1483816     -0.9762427
C       3.5268996      2.1481724     -1.9931624
H      -0.1124344      1.5499141      1.0542083
C       2.2771971      0.5392813     -0.6058139
C       2.2966485      2.5109061     -2.6094790
C       2.2534958     -0.4925963      0.4694642
C       2.3758898     -2.3933552      2.5749206
H       2.3039538      3.2804218     -3.3844011
H       2.4242597     -3.1272637      3.3808898
C       1.1173843      1.9166970     -2.2488568
C       1.0992551      0.9093301     -1.2381710
C       2.5336957     -1.8669089      0.1760846
C       2.6120831     -2.8165215      1.2377834
O      -0.0412583      0.3180216     -0.8631698
H       0.1717481      2.2000673     -2.7093555
C       2.7609539     -2.3077520     -1.1574041
C       2.9298059     -4.1697257      0.9370206
H       2.6903510     -1.5848544     -1.9714445
H       2.9882243     -4.8882642      1.7567693
C       3.0641484     -3.6235481     -1.4170519
C       3.1552172     -4.5639799     -0.3601394
H       3.2338025     -3.9492847     -2.4441905
H       3.3981227     -5.6039770     -0.5825159
H      -1.0305810     -0.0807284      2.9079278
C      -3.8182474     -1.1642220      1.6782788
C      -4.8992200     -0.4036494      1.0515806
C      -2.9670657      0.8703870      1.0454822
C      -1.3665646     -0.7360738      2.0873409
C      -4.4033031      0.7972626      0.6315655
N      -2.6656589     -0.3419031      1.6064495
O      -2.1881482      1.8074186      0.9375793
O      -3.8252441     -2.2452772      2.2299820
H      -5.9160955     -0.7818799      0.9839220
H      -0.6348279     -0.7140403      1.2661057
H      -4.9418788      1.6853563      0.3051700
H      -1.4550886     -1.7642598      2.4595561
          85

O      -1.8950472      1.8560783     -1.9504223
C      -3.1116392      1.6667191     -1.9141395
O      -3.9699391      2.6875584     -2.0938467
C      -3.3956222      3.9718601     -2.3221244
C      -4.5245610      4.9604892     -2.4998964
C      -3.7677533      0.4215917     -1.6401383
N      -3.0126109     -0.6593681     -1.4028391
C      -3.5612420     -1.8015919     -1.1235664
C      -2.7493980     -2.9485926     -0.7157382
C      -3.3620060     -4.1575190     -0.3521957
C      -2.5983443     -5.2504005      0.0554735
C      -1.2074183     -5.1522130      0.1110710
C      -0.5885166     -3.9467880     -0.2375048
C      -1.3470649     -2.8540454     -0.6421343
H      -2.7514744      4.2311934     -1.4685509
H      -2.7531479      3.9266859     -3.2142812
H      -5.1579876      4.6733426     -3.3505006
H      -4.1185877      5.9630449     -2.6902274
H      -5.1498101      5.0024491     -1.5972652
H      -0.8413900      0.7500875     -1.2897880
H      -4.8461290      0.3625948     -1.8170196
H      -4.6487683     -1.9563606     -1.2182661
H      -4.4515593     -4.2339197     -0.3856109
H      -3.0922140     -6.1836445      0.3335803
H      -0.6068887     -6.0072753      0.4274972
H       0.4980197     -3.8600470     -0.1948239
H      -0.8695513     -1.9066849     -0.9021705
H       2.1663168      4.1578495      3.4989677
C       1.9004927      3.2407045      2.9825057
H       3.4420594      1.6767378      3.3923920
H      -1.0745753      3.7424924      1.4577251
C       2.5230432      2.0301778      2.9343455
H       0.2342021      4.9765175      1.3358699
C      -0.2136108      4.1956909      1.9613692
N       0.7680227      3.1408592      2.2019812
H       6.8643602      1.1132355     -0.2642217
H       6.8748896      2.8644762     -2.0477615
C       5.9275123      1.4011045     -0.7443714
C       5.9353463      2.3935045     -1.7554007
N       1.7539428      1.2208232      2.1206489
H      -0.5234729      4.6185931      2.9232271
C       0.6986837      1.9180226      1.6872393
C       4.7524270      0.7949802     -0.3627489
C       4.7565883      2.7563526     -2.3635796
H       1.8905590     -0.7456228      3.8677721
H       4.7632898      0.0299061      0.4159511
H       4.7457679      3.5197977     -3.1446820
C       2.0349966     -0.1459855      1.7862047
C       2.0865594     -1.0819167      2.8486536
C       3.5160805      1.1479764     -0.9767353
C       3.5277255      2.1476361     -1.9937843
H      -0.1118953      1.5505212      1.0506396
C       2.2764759      0.5394391     -0.6067747
C       2.2980318      2.5107016     -2.6110242
C       2.2523834     -0.4923872      0.4686169
C       2.3753499     -2.3926099      2.5747795
H       2.3062177      3.2798376     -3.3863256
H       2.4239938     -3.1262557      3.3809746
C       1.1183528      1.9174927     -2.2505848
C       1.0987718      0.9105812     -1.2392244
C       2.5331194     -1.8667575      0.1757786
C       2.6118469     -2.8160387      1.2377837
O      -0.0429751      0.3221999     -0.8646052
H       0.1730125      2.2012045     -2.7114580
C       2.7606653     -2.3079780     -1.1575230
C       2.9301600     -4.1692098      0.9375083
H       2.6897811     -1.5853566     -1.9717836
H       2.9888220     -4.8874455      1.7575065
C       3.0643771     -3.6237494     -1.4167194
C       3.1557746     -4.5638060     -0.3595087
H       3.2340843     -3.9497609     -2.4437645
H       3.3990866     -5.6037829     -0.5815394
H      -1.0245283     -0.0878789      2.9013425
C      -3.8150455     -1.1655811      1.6821074
C      -4.9046539     -0.3972961      1.0698205
C      -2.9716453      0.8721476      1.0550721
C      -1.3626930     -0.7395763      2.0788300
C      -4.4144484      0.8067483      0.6637221
N      -2.6651551     -0.3447188      1.6066531
O      -2.1924079      1.8073701      0.9435338
O      -3.8233924     -2.2505207      2.2239769
H      -5.9204816     -0.7787820      1.0021278
H      -0.6355770     -0.7114867      1.2538379
H      -4.9493820      1.6889968      0.3248417
H      -1.4472327     -1.7700032      2.4456989
          85

O      -1.8888869      1.8583333     -1.9430503
C      -3.1066351      1.6633963     -1.9215098
O      -3.9650349      2.6852090     -2.1055149
C      -3.3920293      3.9716245     -2.3199521
C      -4.5227500      4.9588083     -2.4962210
C      -3.7613708      0.4177856     -1.6662030
N      -3.0134530     -0.6618119     -1.4108782
C      -3.5619920     -1.8037088     -1.1276219
C      -2.7504031     -2.9491329     -0.7167624
C      -3.3623051     -4.1586271     -0.3526534
C      -2.5984705     -5.2509183      0.0561617
C      -1.2075609     -5.1524222      0.1129367
C      -0.5892117     -3.9467810     -0.2360652
C      -1.3478311     -2.8547000     -0.6422901
H      -2.7533086      4.2263499     -1.4609789
H      -2.7443941      3.9358315     -3.2088255
H      -5.1514133      4.6756883     -3.3516616
H      -4.1191440      5.9639202     -2.6776219
H      -5.1524381      4.9924342     -1.5963634
H      -0.8428252      0.7600043     -1.2909987
H      -4.8458890      0.3648182     -1.8208747
H      -4.6500032     -1.9579923     -1.2206649
H      -4.4517966     -4.2359196     -0.3870746
H      -3.0923170     -6.1842410      0.3341830
H      -0.6068773     -6.0070711      0.4301892
H       0.4972918     -3.8594495     -0.1928627
H      -0.8702849     -1.9076509     -0.9035798
H       2.1637537      4.1580831      3.4986904
C       1.8983478      3.2410892      2.9817460
H       3.4393626      1.6768719      3.3927252
H      -1.0754228      3.7439466      1.4548300
C       2.5208230      2.0305176      2.9338822
H       0.2336354      4.9777026      1.3344106
C      -0.2146868      4.1966368      1.9592345
N       0.7666212      3.1415811      2.2001069
H       6.8635540      1.1127560     -0.2614771
H       6.8761232      2.8636974     -2.0453177
C       5.9272477      1.4005847     -0.7427135
C       5.9362581      2.3928008     -1.7538684
N       1.7524345      1.2214450      2.1192587
H      -0.5251843      4.6191047      2.9210775
C       0.6977751      1.9189249      1.6849023
C       4.7517195      0.7945149     -0.3622559
C       4.7581080      2.7555408     -2.3633113
H       1.8891789     -0.7443575      3.8668640
H       4.7618388      0.0295900      0.4166028
H       4.7480552      3.5188569     -3.1445561
C       2.0335286     -0.1454082      1.7850573
C       2.0853022     -1.0809554      2.8478639
C       3.5159494      1.1475373     -0.9773843
C       3.5288759      2.1470822     -1.9945482
H      -0.1113354      1.5514976      1.0466350
C       2.2757254      0.5397481     -0.6080075
C       2.2998638      2.5106514     -2.6128644
C       2.2510527     -0.4920174      0.4675336
C       2.3746717     -2.3916270      2.5745159
H       2.3091429      3.2793872     -3.3885617
H       2.4236167     -3.1249612      3.3809793
C       1.1196321      1.9186260     -2.2526983
C       1.0983465      0.9121749     -1.2406267
C       2.5323700     -1.8664739      0.1753253
C       2.6114867     -2.8153729      1.2376858
O      -0.0446148      0.3267620     -0.8664523
H       0.1746438      2.2027702     -2.7140514
C       2.7602572     -2.3081645     -1.1577533
C       2.9304755     -4.1685133      0.9379940
H       2.6890735     -1.5858804     -1.9722875
H       2.9894123     -4.8863816      1.7582956
C       3.0645724     -3.6239125     -1.4164056
C       3.1563430     -4.5635294     -0.3588456
H       3.2344518     -3.9502431     -2.4433219
H       3.4001414     -5.6034818     -0.5804605
H      -1.0171764     -0.0975415      2.8938224
C      -3.8119201     -1.1670951      1.6865524
C      -4.9098050     -0.3907981      1.0881418
C      -2.9762350      0.8738689      1.0653826
C      -1.3587127     -0.7440381      2.0686971
C      -4.4244725      0.8139661      0.6955905
N      -2.6650951     -0.3477739      1.6076175
O      -2.1970435      1.8077570      0.9513160
O      -3.8215965     -2.2557920      2.2182274
H      -5.9255165     -0.7732978      1.0233812
H      -0.6373738     -0.7084773      1.2391493
H      -4.9579834      1.6916771      0.3347654
H      -1.4387820     -1.7772882      2.4284408
          85

O      -1.8830393      1.8599941     -1.9345808
C      -3.1016355      1.6605395     -1.9279492
O      -3.9596495      2.6824864     -2.1190092
C      -3.3874341      3.9710852     -2.3177733
C      -4.5193894      4.9573584     -2.4921390
C      -3.7576268      0.4150140     -1.6874212
N      -3.0139619     -0.6644199     -1.4178397
C      -3.5625580     -1.8056148     -1.1322415
C      -2.7512373     -2.9500484     -0.7185207
C      -3.3626736     -4.1597692     -0.3536423
C      -2.5987771     -5.2512306      0.0571717
C      -1.2079302     -5.1522286      0.1154957
C      -0.5899348     -3.9467276     -0.2347076
C      -1.3485602     -2.8555661     -0.6433723
H      -2.7547927      4.2197205     -1.4524126
H      -2.7338528      3.9455502     -3.2028786
H      -5.1427324      4.6797258     -3.3532963
H      -4.1175342      5.9650438     -2.6629059
H      -5.1541770      4.9816845     -1.5955378
H      -0.8443952      0.7700871     -1.2924516
H      -4.8411270      0.3660314     -1.8348995
H      -4.6510827     -1.9594333     -1.2232071
H      -4.4520922     -4.2378431     -0.3891538
H      -3.0926169     -6.1844703      0.3355581
H      -0.6071919     -6.0062166      0.4343928
H       0.4965212     -3.8588456     -0.1908311
H      -0.8710301     -1.9089060     -0.9063213
H       2.1606059      4.1584009      3.4985527
C       1.8956596      3.2416220      2.9809950
H       3.4358468      1.6769932      3.3933819
H      -1.0762991      3.7459365      1.4512092
C       2.5179480      2.0309668      2.9335159
H       0.2332072      4.9792980      1.3321884
C      -0.2157542      4.1980691      1.9563536
N       0.7650054      3.1426956      2.1977170
H       6.8626886      1.1118190     -0.2580427
H       6.8779498      2.8624579     -2.0421938
C       5.9270859      1.3997032     -0.7406192
C       5.9376395      2.3917270     -1.7519096
N       1.7505345      1.2223923      2.1174777
H      -0.5269732      4.6202758      2.9180850
C       0.6966897      1.9202880      1.6820179
C       4.7509477      0.7938375     -0.3616485
C       4.7603062      2.7544658     -2.3629632
H       1.8872599     -0.7426239      3.8655890
H       4.7600022      0.0290799      0.4173866
H       4.7513501      3.5176449     -3.1443628
C       2.0316175     -0.1444706      1.7835495
C       2.0836130     -1.0795926      2.8467533
C       3.5159487      1.1470575     -0.9782243
C       3.5305035      2.1464478     -1.9955405
H      -0.1110570      1.5529243      1.0422780
C       2.2749751      0.5402339     -0.6096168
C       2.3023028      2.5107013     -2.6151136
C       2.2494186     -0.4914011      0.4661375
C       2.3737169     -2.3902286      2.5740780
H       2.3129032      3.2790196     -3.3912196
H       2.4230196     -3.1231800      3.3808718
C       1.1213422      1.9200965     -2.2553149
C       1.0980454      0.9140885     -1.2425548
C       2.5313455     -1.8659663      0.1746622
C       2.6109208     -2.8143819      1.2374597
O      -0.0460941      0.3316563     -0.8688997
H       0.1768421      2.2048969     -2.7172976
C       2.7596493     -2.3082665     -1.1581394
C       2.9307653     -4.1674835      0.9385140
H       2.6881238     -1.5864171     -1.9730309
H       2.9900560     -4.8848749      1.7592108
C       3.0647367     -3.6239855     -1.4160975
C       3.1569797     -4.5630446     -0.3580917
H       3.2348986     -3.9507169     -2.4428407
H       3.4014227     -5.6029609     -0.5791692
H      -1.0076669     -0.1099935      2.8850340
C      -3.8098481     -1.1689939      1.6916235
C      -4.9148236     -0.3858924      1.1079649
C      -2.9802612      0.8749388      1.0769208
C      -1.3542232     -0.7498783      2.0569180
C      -4.4335408      0.8212860      0.7246818
N      -2.6647896     -0.3508378      1.6091577
O      -2.2018925      1.8083554      0.9612237
O      -3.8195504     -2.2618568      2.2130043
H      -5.9303802     -0.7695387      1.0454793
H      -0.6397429     -0.7057584      1.2220166
H      -4.9649900      1.6958673      0.3619135
H      -1.4301428     -1.7864617      2.4078802
          85

O      -1.8781748      1.8605793     -1.9253892
C      -3.0974740      1.6576418     -1.9324287
O      -3.9538256      2.6800373     -2.1337108
C      -3.3815181      3.9705752     -2.3156473
C      -4.5140619      4.9567257     -2.4878359
C      -3.7534828      0.4130337     -1.7023158
N      -3.0149640     -0.6662523     -1.4226664
C      -3.5632306     -1.8075027     -1.1365421
C      -2.7520271     -2.9511291     -0.7212024
C      -3.3631214     -4.1608418     -0.3550102
C      -2.5992630     -5.2512372      0.0586262
C      -1.2084921     -5.1517040      0.1185679
C      -0.5906902     -3.9466623     -0.2336684
C      -1.3492307     -2.8566462     -0.6454927
H      -2.7553407      4.2118038     -1.4435446
H      -2.7216990      3.9552983     -3.1963804
H      -5.1310731      4.6865230     -3.3559874
H      -4.1133611      5.9670979     -2.6455111
H      -5.1550342      4.9703035     -1.5953010
H      -0.8459830      0.7799154     -1.2940695
H      -4.8414141      0.3687061     -1.8370187
H      -4.6522074     -1.9608517     -1.2255496
H      -4.4524834     -4.2395349     -0.3914354
H      -3.0931370     -6.1841623      0.3380837
H      -0.6077832     -6.0048059      0.4398883
H       0.4957223     -3.8582966     -0.1890316
H      -0.8716789     -1.9104866     -0.9103898
H       2.1565385      4.1588586      3.4986826
C       1.8922480      3.2424345      2.9801643
H       3.4312171      1.6771340      3.3944758
H      -1.0777928      3.7483196      1.4475377
C       2.5142519      2.0316293      2.9331529
H       0.2325383      4.9808551      1.3281880
C      -0.2170369      4.2001344      1.9525412
N       0.7629808      3.1443011      2.1947847
H       6.8618562      1.1103105     -0.2539188
H       6.8804959      2.8605609     -2.0384514
C       5.9271225      1.3983627     -0.7380810
C       5.9395979      2.3901493     -1.7495510
N       1.7481118      1.2237535      2.1152357
H      -0.5283002      4.6229178      2.9139991
C       0.6952923      1.9222062      1.6782913
C       4.7501950      0.7929078     -0.3608850
C       4.7633027      2.7530646     -2.3625435
H       1.8845679     -0.7403306      3.8639093
H       4.7578415      0.0283474      0.4183557
H       4.7558019      3.5160848     -3.1441207
C       2.0292070     -0.1431409      1.7815998
C       2.0813084     -1.0777274      2.8452856
C       3.5162035      1.1465406     -0.9792414
C       3.5327137      2.1457251     -1.9967439
H      -0.1109710      1.5550182      1.0368094
C       2.2743467      0.5409289     -0.6116415
C       2.3054442      2.5108403     -2.6177500
C       2.2474998     -0.4904753      0.4643668
C       2.3723025     -2.3883168      2.5734256
H       2.3176011      3.2787494     -3.3942520
H       2.4219621     -3.1207967      3.3806297
C       1.1235607      1.9218253     -2.2585098
C       1.0980056      0.9162159     -1.2451055
C       2.5300273     -1.8651694      0.1737536
C       2.6100539     -2.8129835      1.2370811
O      -0.0471392      0.3364676     -0.8719813
H       0.1796413      2.2073853     -2.7213019
C       2.7588216     -2.3081854     -1.1587234
C       2.9309490     -4.1660303      0.9390424
H       2.6869055     -1.5868648     -1.9740506
H       2.9906385     -4.8828509      1.7602108
C       3.0648317     -3.6238689     -1.4158386
C       3.1576434     -4.5622357     -0.3572760
H       3.2353097     -3.9510966     -2.4423722
H       3.4028917     -5.6021038     -0.5776891
H      -0.9974490     -0.1247565      2.8758358
C      -3.8079266     -1.1717893      1.6971177
C      -4.9195878     -0.3814918      1.1281499
C      -2.9842239      0.8757269      1.0895616
C      -1.3497867     -0.7567832      2.0441702
C      -4.4412405      0.8261262      0.7537421
N      -2.6646795     -0.3545260      1.6113595
O      -2.2066819      1.8089513      0.9731150
O      -3.8171630     -2.2687301      2.2083415
H      -5.9351051     -0.7658765      1.0683577
H      -0.6427830     -0.7031963      1.2036804
H      -4.9732715      1.6993289      0.3796603
H      -1.4214603     -1.7969750      2.3851307
          85

O      -1.8738196      1.8609032     -1.9149926
C      -3.0937880      1.6558216     -1.9349806
O      -3.9475447      2.6782747     -2.1483838
C      -3.3738902      3.9700670     -2.3138933
C      -4.5055367      4.9576459     -2.4838706
C      -3.7521910      0.4124835     -1.7112780
N      -3.0159507     -0.6676180     -1.4247707
C      -3.5642857     -1.8088444     -1.1399235
C      -2.7530808     -2.9522957     -0.7239469
C      -3.3639038     -4.1617567     -0.3562534
C      -2.6000603     -5.2509335      0.0605325
C      -1.2093683     -5.1508369      0.1217857
C      -0.5916641     -3.9466230     -0.2334669
C      -1.3502247     -2.8578599     -0.6485271
H      -2.7537163      4.2030352     -1.4352518
H      -2.7079960      3.9639814     -3.1902763
H      -5.1175368      4.6951632     -3.3576518
H      -4.1044937      5.9692559     -2.6302578
H      -5.1515077      4.9630060     -1.5951982
H      -0.8474549      0.7893070     -1.2960661
H      -4.8381451      0.3702406     -1.8463929
H      -4.6535425     -1.9619249     -1.2281099
H      -4.4532264     -4.2408950     -0.3931332
H      -3.0939391     -6.1833538      0.3416879
H      -0.6087054     -6.0028848      0.4459621
H       0.4947210     -3.8578724     -0.1884887
H      -0.8727792     -1.9121695     -0.9153338
H       2.1507000      4.1596301      3.4989523
C       1.8873973      3.2436902      2.9790780
H       3.4247525      1.6775470      3.3961066
H      -1.0804193      3.7513945      1.4433312
C       2.5090926      2.0327181      2.9327135
H       0.2313238      4.9822461      1.3211800
C      -0.2188517      4.2030685      1.9470371
N       0.7600318      3.1465503      2.1908377
H       6.8612006      1.1079131     -0.2490559
H       6.8840889      2.8576237     -2.0341009
C       5.9275317      1.3963375     -0.7350502
C       5.9424072      2.3878051     -1.7467830
N       1.7447495      1.2257221      2.1122484
H      -0.5292411      4.6277973      2.9079125
C       0.6932569      1.9248624      1.6732271
C       4.7495637      0.7916541     -0.3599104
C       4.7674269      2.7511858     -2.3620794
H       1.8804809     -0.7372994      3.8616433
H       4.7553489      0.0273333      0.4195741
H       4.7618663      3.5139534     -3.1439207
C       2.0260198     -0.1412250      1.7790670
C       2.0779581     -1.0751778      2.8433191
C       3.5168717      1.1460263     -0.9804354
C       3.5357489      2.1449023     -1.9981976
H      -0.1113544      1.5578577      1.0297840
C       2.2739415      0.5419125     -0.6141715
C       2.3095626      2.5111062     -2.6208536
C       2.2452474     -0.4891096      0.4621383
C       2.3700124     -2.3857133      2.5724547
H       2.3235489      3.2786774     -3.3976764
H       2.4198646     -3.1176435      3.3801451
C       1.1265349      1.9238291     -2.2624754
C       1.0984644      0.9185251     -1.2485958
C       2.5283263     -1.8639367      0.1725151
C       2.6086400     -2.8110165      1.2364810
O      -0.0476148      0.3407270     -0.8765419
H       0.1833762      2.2103134     -2.7263555
C       2.7577586     -2.3077679     -1.1595816
C       2.9308030     -4.1639911      0.9395395
H       2.6854860     -1.5870780     -1.9754379
H       2.9908613     -4.8801501      1.7612592
C       3.0648305     -3.6234150     -1.4156699
C       3.1582306     -4.5609396     -0.3564176
H       3.2357715     -3.9512517     -2.4419330
H       3.4044761     -5.6007456     -0.5760127
H      -0.9876528     -0.1423897      2.8672296
C      -3.8066089     -1.1765809      1.7025418
C      -4.9236791     -0.3816742      1.1467379
C      -2.9883605      0.8742951      1.1021164
C      -1.3456844     -0.7650630      2.0309079
C      -4.4486685      0.8282819      0.7782290
N      -2.6648170     -0.3595280      1.6137512
O      -2.2125104      1.8084346      0.9868233
O      -3.8143339     -2.2770731      2.2049462
H      -5.9397620     -0.7654516      1.0919378
H      -0.6461472     -0.7000044      1.1850675
H      -4.9810552      1.7009577      0.4111428
H      -1.4127481     -1.8094854      2.3598650
          85

O      -1.8720639      1.8607805     -1.9099399
C      -3.0923140      1.6548314     -1.9357477
O      -3.9446347      2.6775233     -2.1549929
C      -3.3699952      3.9702544     -2.3107342
C      -4.5010192      4.9582453     -2.4822422
C      -3.7514554      0.4122586     -1.7148182
N      -3.0167395     -0.6681473     -1.4252603
C      -3.5649670     -1.8094983     -1.1410922
C      -2.7536539     -2.9528594     -0.7252033
C      -3.3642666     -4.1622147     -0.3566747
C      -2.6003385     -5.2507926      0.0614708
C      -1.2096753     -5.1504078      0.1230558
C      -0.5920945     -3.9465893     -0.2337800
C      -1.3507449     -2.8584310     -0.6502262
H      -2.7551885      4.1991564     -1.4269293
H      -2.6985433      3.9692064     -3.1832651
H      -5.1061045      4.7018712     -3.3632688
H      -4.0993413      5.9717471     -2.6174586
H      -5.1542164      4.9558735     -1.5981563
H      -0.8481789      0.7934233     -1.2969873
H      -4.8377856      0.3714100     -1.8478115
H      -4.6543757     -1.9624439     -1.2286298
H      -4.4535782     -4.2415607     -0.3935195
H      -3.0941506     -6.1829707      0.3435644
H      -0.6089596     -6.0019358      0.4484893
H       0.4942864     -3.8576495     -0.1888517
H      -0.8733990     -1.9129481     -0.9179934
H       2.1476475      4.1601915      3.4990658
C       1.8848026      3.2443472      2.9784597
H       3.4214493      1.6777533      3.3969655
H      -1.0818876      3.7529788      1.4411866
C       2.5063254      2.0333062      2.9324579
H       0.2306107      4.9829133      1.3174129
C      -0.2198566      4.2045917      1.9441300
N       0.7584218      3.1477137      2.1887587
H       6.8609018      1.1066953     -0.2468190
H       6.8858170      2.8561038     -2.0321477
C       5.9277397      1.3953018     -0.7336764
C       5.9437594      2.3865913     -1.7455596
N       1.7429202      1.2267376      2.1107098
H      -0.5297181      4.6304105      2.9046889
C       0.6921032      1.9262160      1.6706262
C       4.7492694      0.7910293     -0.3594841
C       4.7694062      2.7502101     -2.3619435
H       1.8781150     -0.7357920      3.8604736
H       4.7541492      0.0268467      0.4201380
H       4.7647815      3.5128603     -3.1439077
C       2.0243078     -0.1402391      1.7777885
C       2.0760527     -1.0738945      2.8423113
C       3.5172029      1.1457566     -0.9810530
C       3.5371975      2.1444571     -1.9989616
H      -0.1116657      1.5593011      1.0261828
C       2.2737730      0.5423666     -0.6154367
C       2.3115097      2.5111411     -2.6224014
C       2.2441354     -0.4884155      0.4610428
C       2.3686380     -2.3844065      2.5719549
H       2.3263535      3.2785342     -3.3993896
H       2.4184950     -3.1160691      3.3798876
C       1.1279380      1.9246535     -2.2644558
C       1.0986890      0.9194913     -1.2503541
C       2.5274710     -1.8633038      0.1719124
C       2.6078077     -2.8100312      1.2361834
O      -0.0477433      0.3425397     -0.8787252
H       0.1851243      2.2115435     -2.7288492
C       2.7572931     -2.3075115     -1.1599921
C       2.9305806     -4.1629720      0.9397766
H       2.6849146     -1.5871122     -1.9760955
H       2.9907397     -4.8788267      1.7617545
C       3.0648618     -3.6231425     -1.4155822
C       3.1584515     -4.5602679     -0.3559950
H       3.2360800     -3.9512689     -2.4417069
H       3.4051706     -5.6000470     -0.5751859
H      -0.9828017     -0.1499928      2.8630522
C      -3.8058568     -1.1790025      1.7053151
C      -4.9257083     -0.3815200      1.1562312
C      -2.9904239      0.8737935      1.1087297
C      -1.3437566     -0.7687520      2.0251057
C      -4.4522203      0.8292143      0.7909915
N      -2.6649007     -0.3618493      1.6153515
O      -2.2153032      1.8083184      0.9938834
O      -3.8127757     -2.2814013      2.2030711
H      -5.9417501     -0.7656949      1.1028764
H      -0.6478953     -0.6989068      1.1767030
H      -4.9851085      1.7017046      0.4242307
H      -1.4087421     -1.8148294      2.3490409
