          85

O      -1.6731870      2.5961663     -0.6425299
C      -2.8391974      2.3200184     -0.7683257
O      -3.8156818      3.2277836     -0.8196672
C      -3.4555133      4.6012441     -0.6486744
C      -4.6435148      5.4446791     -1.0452123
C      -3.4208634      0.9296738     -0.8517662
N      -2.4431951     -0.0557755     -1.1524866
C      -2.9594364     -1.1913644     -1.4947532
C      -2.2660289     -2.4873068     -1.4745971
C      -2.9105448     -3.5927354     -2.0479558
C      -2.3345355     -4.8599197     -1.9924889
C      -1.1088579     -5.0389865     -1.3490420
C      -0.4696186     -3.9475608     -0.7568488
C      -1.0439460     -2.6805547     -0.8120531
H      -3.1865114      4.7589937      0.4061367
H      -2.5700463      4.8187446     -1.2629803
H      -4.4151534      6.5072031     -0.8878917
H      -5.5215029      5.1821387     -0.4393443
H      -4.8892731      5.2915360     -2.1049023
H      -1.0142079      0.2155789     -0.5423372
H      -4.2678567      0.9476135     -1.5660772
H      -3.9793344     -1.2213750     -1.9030402
H      -3.8773199     -3.4535718     -2.5377267
H      -2.8454803     -5.7112553     -2.4450759
H      -0.6578726     -6.0316674     -1.2982897
H       0.4804418     -4.0835920     -0.2357878
H      -0.5545672     -1.8396799     -0.3209515
H       1.9923832      4.8415828      0.9558046
C       1.7578552      3.8230466      1.2492152
H       3.5958608      2.5595979      1.1174788
H      -0.5650960      5.0403888      2.4885464
C       2.5425188      2.7147178      1.3322669
H      -1.5588446      3.6658425      1.8631062
C      -0.6878809      4.3058540      1.6837921
N       0.4860641      3.4435485      1.6285118
H       6.7072879      0.4117898     -1.6341322
H       6.2309388      1.4179298     -3.8729532
C       5.6750858      0.6031089     -1.9326430
C       5.4066014      1.1739293     -3.2014539
N       1.7296653      1.6852061      1.7667290
H      -0.7978468      4.8082607      0.7172340
C       0.4877875      2.1507603      1.9268519
C       4.6476145      0.2878528     -1.0735220
C       4.1067217      1.4194549     -3.5786008
H       1.9307794      0.3694704      4.0673554
H       4.8665314     -0.1525764     -0.0983925
H       3.8853805      1.8615898     -4.5527997
C       2.1142605      0.3090032      1.9068143
C       2.1630885     -0.2539138      3.2031293
C       3.2914383      0.5269722     -1.4385075
C       3.0236328      1.1070059     -2.7142323
H      -0.4030375      1.5800467      2.2020621
C       2.2021080      0.2162189     -0.5729108
C       1.6716461      1.3618202     -3.0836748
C       2.3922753     -0.4099116      0.7623512
C       2.5026777     -1.5750338      3.3450271
H       1.4701058      1.8004036     -4.0635778
H       2.5450340     -2.0301553      4.3359504
C       0.6360677      1.0769254     -2.2341159
C       0.8952907      0.5075223     -0.9509424
C       2.7493154     -1.7891741      0.9036289
C       2.8060957     -2.3704134      2.2057160
O      -0.0856228      0.2482379     -0.0933752
H      -0.3993753      1.2868135     -2.5028908
C       3.0276397     -2.6077502     -0.2275437
C       3.1552749     -3.7434674      2.3360286
H       2.9638006     -2.1708906     -1.2248612
H       3.1969068     -4.1800772      3.3358219
C       3.3653629     -3.9302602     -0.0679342
C       3.4327166     -4.5048410      1.2268174
H       3.5759772     -4.5460652     -0.9435451
H       3.7011099     -5.5564178      1.3380710
H      -1.4020327     -0.7078686      3.5290521
C      -3.5766709     -1.6844951      1.2630611
C      -4.5286699     -0.8948193      0.6022750
C      -2.9269437      0.5234976      1.5710098
C      -1.4088643     -1.1706100      2.5298916
C      -4.0877433      0.5136374      0.5871727
N      -2.5626664     -0.7551890      1.7745705
O      -2.3877446      1.5174185      2.0523822
O      -3.4505199     -2.8883846      1.4785019
H      -5.4279788     -1.2951391      0.1436886
H      -0.4823471     -0.9008526      1.9987514
H      -4.8277674      1.2989006      0.8305847
H      -1.4666331     -2.2617906      2.6278323
          85

O      -1.6698124      2.5963965     -0.6381350
C      -2.8353081      2.3200709     -0.7684160
O      -3.8105342      3.2284933     -0.8278014
C      -3.4539785      4.6013617     -0.6474098
C      -4.6427449      5.4435909     -1.0442944
C      -3.4200515      0.9296338     -0.8499611
N      -2.4441627     -0.0576006     -1.1512685
C      -2.9613408     -1.1926333     -1.4940576
C      -2.2679770     -2.4887700     -1.4741115
C      -2.9120273     -3.5949760     -2.0464734
C      -2.3346512     -4.8616372     -1.9913506
C      -1.1082446     -5.0395449     -1.3489875
C      -0.4696656     -3.9474424     -0.7573526
C      -1.0452824     -2.6810482     -0.8124083
H      -3.1901796      4.7533617      0.4094739
H      -2.5664088      4.8246898     -1.2564290
H      -4.4183477      6.5059124     -0.8807966
H      -5.5222433      5.1752632     -0.4433578
H      -4.8838443      5.2950036     -2.1056101
H      -1.0145887      0.2138956     -0.5428481
H      -4.2653949      0.9500574     -1.5661971
H      -3.9817495     -1.2220639     -1.9010468
H      -3.8793595     -3.4569355     -2.5354656
H      -2.8451644     -5.7134938     -2.4434466
H      -0.6562323     -6.0317794     -1.2986267
H       0.4809126     -4.0824110     -0.2369710
H      -0.5561706     -1.8397155     -0.3218818
H       1.9919408      4.8417504      0.9574909
C       1.7571231      3.8232103      1.2500173
H       3.5949523      2.5596100      1.1189764
H      -0.5648161      5.0405692      2.4894274
C       2.5415940      2.7147205      1.3330035
H      -1.5595571      3.6665722      1.8644955
C      -0.6885273      4.3063368      1.6845363
N       0.4850589      3.4436393      1.6282679
H       6.7070426      0.4116056     -1.6339002
H       6.2309223      1.4178091     -3.8727310
C       5.6748727      0.6029918     -1.9324782
C       5.4065161      1.1738605     -3.2012981
N       1.7283161      1.6850315      1.7662734
H      -0.7990968      4.8090613      0.7182223
C       0.4863229      2.1506474      1.9257144
C       4.6473217      0.2877625     -1.0734524
C       4.1066953      1.4195134     -3.5785395
H       1.9300493      0.3694591      4.0670589
H       4.8661255     -0.1527260     -0.0983262
H       3.8854664      1.8617037     -4.5527376
C       2.1133114      0.3089170      1.9064924
C       2.1624912     -0.2538909      3.2028448
C       3.2911986      0.5270136     -1.4385515
C       3.0235230      1.1071708     -2.7142467
H      -0.4047516      1.5801147      2.2004942
C       2.2017491      0.2162344     -0.5731490
C       1.6716244      1.3622888     -3.0837683
C       2.3917057     -0.4099614      0.7620987
C       2.5025841     -1.5748846      3.3448025
H       1.4702462      1.8010808     -4.0636081
H       2.5452277     -2.0298956      4.3357640
C       0.6359373      1.0773619     -2.2343604
C       0.8950065      0.5075399     -0.9513963
C       2.7490345     -1.7891426      0.9034127
C       2.8060667     -2.3702971      2.2055247
O      -0.0859495      0.2477858     -0.0940902
H      -0.3994488      1.2873087     -2.5033196
C       3.0273521     -2.6077259     -0.2277577
C       3.1555446     -3.7432796      2.3358608
H       2.9632856     -2.1709308     -1.2250896
H       3.1974003     -4.1798347      3.3356682
C       3.3652956     -3.9301774     -0.0681310
C       3.4329565     -4.5046647      1.2266465
H       3.5758571     -4.5460024     -0.9437404
H       3.7015530     -5.5561874      1.3379199
H      -1.3953717     -0.7054497      3.5223728
C      -3.5756356     -1.6844092      1.2614047
C      -4.5314016     -0.8951740      0.6056587
C      -2.9303308      0.5242237      1.5726174
C      -1.4054321     -1.1684833      2.5233880
C      -4.0905975      0.5136567      0.5884575
N      -2.5622871     -0.7540000      1.7723050
O      -2.3937060      1.5183237      2.0564475
O      -3.4456813     -2.8885608      1.4731912
H      -5.4317087     -1.2964622      0.1498979
H      -0.4810042     -0.8984110      1.9889952
H      -4.8317293      1.2984137      0.8333107
H      -1.4621389     -2.2596784      2.6218733
          85

O      -1.6591705      2.5996876     -0.6271270
C      -2.8237061      2.3201573     -0.7679909
O      -3.7973785      3.2295223     -0.8457283
C      -3.4505993      4.6017243     -0.6434950
C      -4.6417892      5.4399252     -1.0420344
C      -3.4140327      0.9312639     -0.8510125
N      -2.4476848     -0.0622496     -1.1500748
C      -2.9671146     -1.1970971     -1.4922771
C      -2.2730980     -2.4929186     -1.4727181
C      -2.9153733     -3.6014964     -2.0427733
C      -2.3341640     -4.8666051     -1.9885844
C      -1.1059991     -5.0413967     -1.3487395
C      -0.4695747     -3.9473297     -0.7583799
C      -1.0487199     -2.6826287     -0.8130335
H      -3.1992991      4.7413279      0.4183280
H      -2.5581736      4.8394291     -1.2402740
H      -4.4268410      6.5022365     -0.8665060
H      -5.5244061      5.1590617     -0.4514792
H      -4.8726088      5.2996509     -2.1067632
H      -1.0148350      0.2102525     -0.5448887
H      -4.2670911      0.9522448     -1.5439523
H      -3.9899841     -1.2258640     -1.8930176
H      -3.8840327     -3.4665756     -2.5300327
H      -2.8432687     -5.7198403     -2.4397099
H      -0.6511361     -6.0323728     -1.2993112
H       0.4822344     -4.0793540     -0.2394862
H      -0.5606224     -1.8401818     -0.3235155
H       1.9909870      4.8424403      0.9612511
C       1.7553576      3.8235293      1.2518246
H       3.5931880      2.5596971      1.1229595
H      -0.5646486      5.0405424      2.4912027
C       2.5394113      2.7147658      1.3349453
H      -1.5614495      3.6681861      1.8662248
C      -0.6901561      4.3074050      1.6855845
N       0.4825806      3.4437742      1.6272452
H       6.7063730      0.4112386     -1.6331923
H       6.2307897      1.4175296     -3.8720660
C       5.6742751      0.6027046     -1.9319619
C       5.4062165      1.1736538     -3.2008134
N       1.7250971      1.6846075      1.7651985
H      -0.8015988      4.8112359      0.7199856
C       0.4827508      2.1503314      1.9226069
C       4.6465295      0.2874713     -1.0731856
C       4.1065361      1.4195188     -3.5783234
H       1.9285678      0.3694045      4.0664613
H       4.8650754     -0.1531325     -0.0980596
H       3.8855636      1.8618244     -4.5525227
C       2.1110748      0.3086991      1.9058063
C       2.1612130     -0.2538621      3.2022432
C       3.2905361      0.5270058     -1.4385723
C       3.0231759      1.1074315     -2.7141983
H      -0.4088935      1.5802089      2.1963102
C       2.2007695      0.2162319     -0.5735869
C       1.6715174      1.3635065     -3.0838283
C       2.3902757     -0.4101464      0.7615870
C       2.5024658     -1.5745784      3.3442954
H       1.4705243      1.8028937     -4.0634689
H       2.5458672     -2.0293256      4.3353455
C       0.6356030      1.0787878     -2.2346692
C       0.8943113      0.5077906     -0.9523332
C       2.7483022     -1.7891366      0.9029202
C       2.8060099     -2.3700946      2.2050810
O      -0.0870596      0.2469920     -0.0957591
H      -0.3995907      1.2894148     -2.5038517
C       3.0265471     -2.6077041     -0.2282805
C       3.1562411     -3.7429015      2.3354337
H       2.9618342     -2.1710662     -1.2256396
H       3.1986996     -4.1793460      3.3352632
C       3.3650892     -3.9300002     -0.0686472
C       3.4335771     -4.5042749      1.2261812
H       3.5754905     -4.5458547     -0.9442731
H       3.7027165     -5.5556573      1.3374702
H      -1.3774784     -0.6994403      3.5062615
C      -3.5724670     -1.6836431      1.2597868
C      -4.5398043     -0.8928217      0.6170041
C      -2.9389543      0.5266321      1.5779369
C      -1.3958352     -1.1631046      2.5076824
C      -4.0997205      0.5135994      0.5975366
N      -2.5608664     -0.7514946      1.7676231
O      -2.4074516      1.5206951      2.0668664
O      -3.4339151     -2.8884834      1.4599042
H      -5.4410314     -1.2959457      0.1630654
H      -0.4771989     -0.8916837      1.9645793
H      -4.8273700      1.3047240      0.8083013
H      -1.4490573     -2.2544006      2.6075040
          85

O      -1.6486516      2.6098599     -0.6194260
C      -2.8102389      2.3235361     -0.7762583
O      -3.7870249      3.2304602     -0.8571597
C      -3.4493986      4.6018106     -0.6396247
C      -4.6417656      5.4373126     -1.0407436
C      -3.4028402      0.9360972     -0.8649157
N      -2.4487908     -0.0640104     -1.1568198
C      -2.9716640     -1.2001534     -1.4927578
C      -2.2766297     -2.4953445     -1.4703180
C      -2.9166422     -3.6053745     -2.0401241
C      -2.3331922     -4.8695504     -1.9872213
C      -1.1043975     -5.0432038     -1.3483673
C      -0.4692817     -3.9478031     -0.7590652
C      -1.0504879     -2.6838711     -0.8129518
H      -3.2070784      4.7337006      0.4252834
H      -2.5537308      4.8500952     -1.2270821
H      -4.4315519      6.4997885     -0.8606704
H      -5.5265085      5.1513666     -0.4558864
H      -4.8665371      5.2997563     -2.1071050
H      -1.0138930      0.2082304     -0.5461260
H      -4.2620282      0.9599847     -1.5551513
H      -3.9959432     -1.2286009     -1.8901251
H      -3.8856190     -3.4722073     -2.5272390
H      -2.8413481     -5.7230579     -2.4389372
H      -0.6479538     -6.0334849     -1.2995895
H       0.4836046     -4.0779342     -0.2416533
H      -0.5619752     -1.8409890     -0.3246697
H       1.9903717      4.8428454      0.9631852
C       1.7543604      3.8237154      1.2526732
H       3.5923762      2.5599832      1.1253668
H      -0.5647766      5.0402432      2.4919493
C       2.5383150      2.7149021      1.3360309
H      -1.5626603      3.6690806      1.8660339
C      -0.6911020      4.3079977      1.6856394
N       0.4811840      3.4438003      1.6263925
H       6.7060170      0.4111484     -1.6327474
H       6.2306132      1.4174962     -3.8716126
C       5.6739422      0.6025654     -1.9316197
C       5.4059680      1.1735540     -3.2004733
N       1.7234659      1.6844249      1.7645787
H      -0.8027678      4.8125198      0.7204733
C       0.4807789      2.1500918      1.9204548
C       4.6461015      0.2872713     -1.0730019
C       4.1063498      1.4194463     -3.5781664
H       1.9279898      0.3693853      4.0661574
H       4.8644870     -0.1533474     -0.0978513
H       3.8855378      1.8618664     -4.5523461
C       2.1100056      0.3086276      1.9054481
C       2.1606603     -0.2538439      3.2019199
C       3.2901977      0.5268848     -1.4385961
C       3.0228800      1.1074050     -2.7141643
H      -0.4113333      1.5797916      2.1922864
C       2.2003266      0.2161518     -0.5737508
C       1.6713101      1.3640950     -3.0836818
C       2.3895854     -0.4102864      0.7613673
C       2.5024516     -1.5744447      3.3440160
H       1.4704135      1.8038409     -4.0631708
H       2.5462926     -2.0290309      4.3351216
C       0.6353775      1.0797997     -2.2344304
C       0.8941022      0.5080764     -0.9525731
C       2.7478652     -1.7891947      0.9026660
C       2.8059664     -2.3700538      2.2048411
O      -0.0874590      0.2468643     -0.0960742
H      -0.3996596      1.2911921     -2.5035457
C       3.0260039     -2.6077213     -0.2285875
C       3.1566555     -3.7427557      2.3351679
H       2.9608480     -2.1711690     -1.2259543
H       3.1995075     -4.1791595      3.3349975
C       3.3649418     -3.9299134     -0.0689815
C       3.4339692     -4.5040779      1.2258666
H       3.5752190     -4.5457732     -0.9446319
H       3.7034777     -5.5553675      1.3371346
H      -1.3658619     -0.6934647      3.4949482
C      -3.5687231     -1.6842729      1.2615759
C      -4.5512661     -0.8934287      0.6350870
C      -2.9511764      0.5258467      1.5858724
C      -1.3883902     -1.1600469      2.4978190
C      -4.1182657      0.5093830      0.6152673
N      -2.5594985     -0.7518840      1.7641761
O      -2.4170056      1.5195187      2.0710436
O      -3.4257517     -2.8896405      1.4498903
H      -5.4591585     -1.3011926      0.1991010
H      -0.4730599     -0.8889238      1.9494521
H      -4.8467664      1.3067104      0.8143447
H      -1.4389777     -2.2511302      2.6013704
          85

O      -1.6418357      2.6173614     -0.6139462
C      -2.8009439      2.3261154     -0.7866767
O      -3.7824580      3.2308522     -0.8614263
C      -3.4491804      4.6013575     -0.6375557
C      -4.6417966      5.4360728     -1.0402729
C      -3.3865279      0.9440496     -0.8926212
N      -2.4487525     -0.0634298     -1.1631339
C      -2.9742577     -1.2020164     -1.4933982
C      -2.2784316     -2.4960601     -1.4685054
C      -2.9167190     -3.6069985     -2.0390014
C      -2.3325140     -4.8707885     -1.9866459
C      -1.1036166     -5.0444754     -1.3480084
C      -0.4690596     -3.9483229     -0.7594919
C      -1.0509021     -2.6845721     -0.8130134
H      -3.2102354      4.7314889      0.4284180
H      -2.5521926      4.8541952     -1.2211857
H      -4.4333169      6.4986792     -0.8588518
H      -5.5276049      5.1486427     -0.4577230
H      -4.8641668      5.2991476     -2.1072360
H      -1.0127489      0.2086097     -0.5463125
H      -4.2629417      0.9604167     -1.5581067
H      -3.9974062     -1.2289499     -1.8937642
H      -3.8855539     -3.4745189     -2.5266099
H      -2.8403643     -5.7241831     -2.4390005
H      -0.6466850     -6.0345260     -1.2993553
H       0.4844337     -4.0775413     -0.2429122
H      -0.5615479     -1.8416877     -0.3255984
H       1.9899896      4.8429946      0.9639597
C       1.7538468      3.8237719      1.2530060
H       3.5920279      2.5601771      1.1264505
H      -0.5649400      5.0400683      2.4920333
C       2.5378317      2.7149851      1.3365100
H      -1.5633740      3.6694959      1.8651947
C      -0.6916175      4.3082378      1.6853902
N       0.4805042      3.4437845      1.6259590
H       6.7058393      0.4111042     -1.6324895
H       6.2305242      1.4174864     -3.8713537
C       5.6737778      0.6024959     -1.9314212
C       5.4058430      1.1735029     -3.2002728
N       1.7227783      1.6843515      1.7643243
H      -0.8033068      4.8127987      0.7202988
C       0.4799031      2.1499833      1.9193810
C       4.6458792      0.2871784     -1.0728941
C       4.1062488      1.4193999     -3.5780692
H       1.9278014      0.3693776      4.0660196
H       4.8641694     -0.1534403     -0.0977240
H       3.8855393      1.8619020     -4.5522295
C       2.1095212      0.3086041      1.9052811
C       2.1604228     -0.2538537      3.2017687
C       3.2900299      0.5268093     -1.4386172
C       3.0227027      1.1073553     -2.7141570
H      -0.4124021      1.5793586      2.1896778
C       2.2001291      0.2160867     -0.5738433
C       1.6711404      1.3643204     -3.0835814
C       2.3892463     -0.4103615      0.7612616
C       2.5024563     -1.5744067      3.3438876
H       1.4702720      1.8042810     -4.0629795
H       2.5465559     -2.0289130      4.3350206
C       0.6351877      1.0803059     -2.2342484
C       0.8940442      0.5082272     -0.9526400
C       2.7476295     -1.7892359      0.9025430
C       2.8059420     -2.3700534      2.2047219
O      -0.0873886      0.2467840     -0.0958920
H      -0.3997436      1.2925334     -2.5030946
C       3.0257143     -2.6077331     -0.2287400
C       3.1568663     -3.7427004      2.3350294
H       2.9602890     -2.1712244     -1.2261061
H       3.1999401     -4.1790856      3.3348582
C       3.3648626     -3.9298681     -0.0691564
C       3.4341660     -4.5039873      1.2256963
H       3.5750547     -4.5457272     -0.9448256
H       3.7038673     -5.5552305      1.3369431
H      -1.3612826     -0.6901331      3.4897524
C      -3.5633381     -1.6847322      1.2641604
C      -4.5592332     -0.8931423      0.6476400
C      -2.9606167      0.5247767      1.5925503
C      -1.3841091     -1.1592469      2.4938638
C      -4.1417866      0.5011708      0.6444940
N      -2.5579837     -0.7537937      1.7621972
O      -2.4209383      1.5176517      2.0714627
O      -3.4226884     -2.8897450      1.4443622
H      -5.4717507     -1.3054488      0.2260121
H      -0.4699305     -0.8885328      1.9437069
H      -4.8640875      1.3085436      0.8112561
H      -1.4327439     -2.2500936      2.6006172
          85

O      -1.6366428      2.6230201     -0.6094202
C      -2.7936874      2.3278653     -0.7959505
O      -3.7797134      3.2311584     -0.8637893
C      -3.4491025      4.6007923     -0.6362241
C      -4.6418443      5.4352051     -1.0400478
C      -3.3688438      0.9527555     -0.9236482
N      -2.4488770     -0.0624089     -1.1677595
C      -2.9760369     -1.2035711     -1.4941233
C      -2.2795553     -2.4962938     -1.4673108
C      -2.9165318     -3.6080557     -2.0384200
C      -2.3319941     -4.8716054     -1.9862216
C      -1.1030742     -5.0455295     -1.3476609
C      -0.4688849     -3.9488007     -0.7598022
C      -1.0509276     -2.6851014     -0.8132492
H      -3.2119873      4.7307887      0.4302747
H      -2.5513346      4.8565291     -1.2175890
H      -4.4345721      6.4979277     -0.8577911
H      -5.5283590      5.1468095     -0.4589970
H      -4.8627629      5.2986308     -2.1073786
H      -1.0117557      0.2097505     -0.5460295
H      -4.2650557      0.9596411     -1.5613391
H      -3.9974799     -1.2287681     -1.8988333
H      -3.8851710     -3.4759926     -2.5265650
H      -2.8397447     -5.7248817     -2.4390111
H      -0.6459322     -6.0354643     -1.2989572
H       0.4850075     -4.0773856     -0.2437291
H      -0.5607618     -1.8422918     -0.3265302
H       1.9896390      4.8430722      0.9644760
C       1.7534191      3.8237860      1.2532307
H       3.5917529      2.5603285      1.1272500
H      -0.5651308      5.0399357      2.4919271
C       2.5374571      2.7150401      1.3368669
H      -1.5639907      3.6697746      1.8642169
C      -0.6920614      4.3083735      1.6850684
N       0.4799603      3.4437451      1.6256168
H       6.7056893      0.4110557     -1.6322549
H       6.2304698      1.4174612     -3.8711279
C       5.6736432      0.6024369     -1.9312447
C       5.4057539      1.1734570     -3.2000965
N       1.7222712      1.6842895      1.7641587
H      -0.8038009      4.8127778      0.7199455
C       0.4792586      2.1499021      1.9185798
C       4.6456888      0.2871101     -1.0727965
C       4.1061788      1.4193672     -3.5779809
H       1.9276799      0.3693646      4.0659202
H       4.8638937     -0.1535094     -0.0976091
H       3.8855558      1.8619076     -4.5521425
C       2.1091383      0.3085804      1.9051573
C       2.1602379     -0.2538765      3.2016568
C       3.2898850      0.5267544     -1.4386330
C       3.0225606      1.1073187     -2.7141547
H      -0.4131299      1.5789811      2.1876206
C       2.1999600      0.2160336     -0.5739250
C       1.6709910      1.3644652     -3.0835189
C       2.3889608     -0.4104221      0.7611750
C       2.5024663     -1.5743910      3.3437903
H       1.4701523      1.8046331     -4.0628260
H       2.5467945     -2.0288365      4.3349437
C       0.6350019      1.0806613     -2.2341363
C       0.8939927      0.5083408     -0.9527111
C       2.7474311     -1.7892707      0.9024427
C       2.8059238     -2.3700587      2.2046241
O      -0.0872555      0.2466889     -0.0956973
H      -0.3998454      1.2937687     -2.5026438
C       3.0254779     -2.6077426     -0.2288623
C       3.1570380     -3.7426597      2.3349141
H       2.9598217     -2.1712695     -1.2262256
H       3.2002988     -4.1790278      3.3347437
C       3.3647968     -3.9298305     -0.0692982
C       3.4343188     -4.5039171      1.2255545
H       3.5749146     -4.5456869     -0.9449849
H       3.7041710     -5.5551244      1.3367812
H      -1.3587766     -0.6877412      3.4863617
C      -3.5575917     -1.6850552      1.2666653
C      -4.5655726     -0.8918934      0.6572635
C      -2.9680232      0.5239450      1.5977732
C      -1.3810513     -1.1589923      2.4915270
C      -4.1649968      0.4918870      0.6769147
N      -2.5566765     -0.7559988      1.7607496
O      -2.4232536      1.5159166      2.0711133
O      -3.4212623     -2.8893734      1.4402869
H      -5.4806903     -1.3084169      0.2457692
H      -0.4675739     -0.8885560      1.9403700
H      -4.8802317      1.3106564      0.8089446
H      -1.4278475     -2.2496187      2.6010348
          85

O      -1.6318575      2.6280735     -0.6052074
C      -2.7870809      2.3291862     -0.8041379
O      -3.7774539      3.2315244     -0.8656926
C      -3.4490379      4.6002002     -0.6352402
C      -4.6419613      5.4343914     -1.0399448
C      -3.3506778      0.9619360     -0.9555224
N      -2.4491996     -0.0613236     -1.1711228
C      -2.9772701     -1.2050546     -1.4951301
C      -2.2803245     -2.4963582     -1.4666048
C      -2.9162264     -3.6089940     -2.0381251
C      -2.3315210     -4.8723444     -1.9858015
C      -1.1026107     -5.0465491     -1.3472421
C      -0.4687180     -3.9492657     -0.7600606
C      -1.0507575     -2.6855896     -0.8136774
H      -3.2133328      4.7305890      0.4316397
H      -2.5506562      4.8585175     -1.2147414
H      -4.4359421      6.4972281     -0.8567868
H      -5.5290681      5.1449228     -0.4602721
H      -4.8616393      5.2982563     -2.1076099
H      -1.0108511      0.2111053     -0.5456111
H      -4.2675596      0.9582779     -1.5608656
H      -3.9970944     -1.2284473     -1.9038899
H      -3.8846460     -3.4772651     -2.5268374
H      -2.8392507     -5.7255472     -2.4388683
H      -0.6453689     -6.0364064     -1.2983450
H       0.4854737     -4.0772998     -0.2443227
H      -0.5598281     -1.8428585     -0.3276067
H       1.9892060      4.8431215      0.9649753
C       1.7529216      3.8237707      1.2534441
H       3.5914359      2.5604842      1.1281233
H      -0.5654256      5.0397901      2.4916599
C       2.5370316      2.7150832      1.3372557
H      -1.5646844      3.6699955      1.8630385
C      -0.6925819      4.3084526      1.6846187
N       0.4793475      3.4436618      1.6252291
H       6.7055098      0.4109851     -1.6319661
H       6.2304306      1.4174124     -3.8708576
C       5.6734849      0.6023657     -1.9310291
C       5.4056677      1.1733994     -3.1998861
N       1.7217225      1.6842086      1.7640137
H      -0.8043522      4.8126041      0.7194150
C       0.4785752      2.1497965      1.9177747
C       4.6454580      0.2870399     -1.0726774
C       4.1061190      1.4193377     -3.5778775
H       1.9275494      0.3693339      4.0658222
H       4.8635607     -0.1535816     -0.0974692
H       3.8856006      1.8619138     -4.5520459
C       2.1087094      0.3085398      1.9050332
C       2.1600362     -0.2539169      3.2015436
C       3.2897111      0.5267053     -1.4386468
C       3.0224113      1.1072939     -2.7141529
H      -0.4138362      1.5785899      2.1856521
C       2.1997524      0.2159818     -0.5740224
C       1.6708368      1.3646052     -3.0834846
C       2.3886232     -0.4104883      0.7610760
C       2.5024885     -1.5743850      3.3436867
H       1.4700459      1.8049828     -4.0627043
H       2.5470776     -2.0287696      4.3348591
C       0.6347898      1.0809831     -2.2340805
C       0.8939014      0.5084457     -0.9528150
C       2.7471998     -1.7893086      0.9023285
C       2.8059062     -2.3700650      2.2045118
O      -0.0871287      0.2465676     -0.0955357
H      -0.3999803      1.2950381     -2.5022046
C       3.0252104     -2.6077539     -0.2289996
C       3.1572299     -3.7426145      2.3347817
H       2.9593089     -2.1713127     -1.2263576
H       3.2006999     -4.1789610      3.3346131
C       3.3647206     -3.9297893     -0.0694575
C       3.4344843     -4.5038420      1.2253941
H       3.5747622     -4.5456409     -0.9451636
H       3.7045029     -5.5550097      1.3365989
H      -1.3568984     -0.6856854      3.4835873
C      -3.5516845     -1.6853938      1.2692473
C      -4.5715465     -0.8900243      0.6660953
C      -2.9743279      0.5233221      1.6019673
C      -1.3784438     -1.1589137      2.4897431
C      -4.1877759      0.4823911      0.7105880
N      -2.5555338     -0.7583378      1.7595150
O      -2.4249570      1.5142565      2.0705437
O      -3.4203938     -2.8889220      1.4365842
H      -5.4876924     -1.3108429      0.2613992
H      -0.4656306     -0.8886718      1.9376863
H      -4.8934860      1.3127048      0.8042380
H      -1.4234151     -2.2493216      2.6018020
          85

O      -1.6265690      2.6335417     -0.6008285
C      -2.7799830      2.3304866     -0.8112991
O      -3.7747877      3.2318863     -0.8678019
C      -3.4489645      4.5996058     -0.6345379
C      -4.6422887      5.4333642     -1.0399739
C      -3.3322965      0.9713861     -0.9865694
N      -2.4494521     -0.0603819     -1.1734191
C      -2.9778529     -1.2064414     -1.4966386
C      -2.2808448     -2.4963927     -1.4664878
C      -2.9157783     -3.6100562     -2.0381614
C      -2.3309802     -4.8732362     -1.9852796
C      -1.1021507     -5.0477001     -1.3465510
C      -0.4685220     -3.9497358     -0.7603087
C      -1.0504259     -2.6860890     -0.8145125
H      -3.2147268      4.7304262      0.4327178
H      -2.5500541      4.8608848     -1.2120867
H      -4.4378279      6.4962765     -0.8554818
H      -5.5299592      5.1423939     -0.4618939
H      -4.8605912      5.2980480     -2.1080184
H      -1.0100817      0.2122715     -0.5451557
H      -4.2686011      0.9578967     -1.5594609
H      -3.9965278     -1.2279440     -1.9083103
H      -3.8839363     -3.4787544     -2.5275517
H      -2.8387237     -5.7264577     -2.4384184
H      -0.6449166     -6.0375066     -1.2971275
H       0.4858992     -4.0771288     -0.2447521
H      -0.5587346     -1.8433833     -0.3291957
H       1.9884900      4.8431355      0.9656135
C       1.7521318      3.8237016      1.2537196
H       3.5909199      2.5606957      1.1294432
H      -0.5660896      5.0395117      2.4911072
C       2.5363599      2.7151200      1.3378642
H      -1.5657561      3.6701925      1.8613147
C      -0.6934311      4.3084668      1.6838118
N       0.4783788      3.4434575      1.6245943
H       6.7052120      0.4108534     -1.6314705
H       6.2304106      1.4173095     -3.8704084
C       5.6732285      0.6022479     -1.9306667
C       5.4055590      1.1733001     -3.1995434
N       1.7208866      1.6840622      1.7638593
H      -0.8050765      4.8123922      0.7185296
C       0.4775522      2.1495662      1.9166988
C       4.6450747      0.2869405     -1.0724769
C       4.1060612      1.4192983     -3.5777162
H       1.9273322      0.3692474      4.0656943
H       4.8630031     -0.1536858     -0.0972339
H       3.8857210      1.8619239     -4.5519023
C       2.1080466      0.3084419      1.9048711
C       2.1597382     -0.2540069      3.2013930
C       3.2894156      0.5266538     -1.4386617
C       3.0222015      1.1072905     -2.7141572
H      -0.4148679      1.5780641      2.1833354
C       2.1993936      0.2159224     -0.5741839
C       1.6706383      1.3648189     -3.0835082
C       2.3880654     -0.4105873      0.7609204
C       2.5025492     -1.5743939      3.3435416
H       1.4699561      1.8054419     -4.0626372
H       2.5475283     -2.0286994      4.3347341
C       0.6344826      1.0813646     -2.2341379
C       0.8936840      0.5085619     -0.9530366
C       2.7468296     -1.7893621      0.9021531
C       2.8058869     -2.3700745      2.2043400
O      -0.0870597      0.2463816     -0.0954806
H      -0.4001946      1.2964222     -2.5019050
C       3.0248033     -2.6077722     -0.2292057
C       3.1575240     -3.7425470      2.3345791
H       2.9585682     -2.1713748     -1.2265574
H       3.2013017     -4.1788565      3.3344140
C       3.3646024     -3.9297313     -0.0696962
C       3.4347228     -4.5037384      1.2251529
H       3.5745562     -4.5455697     -0.9454305
H       3.7049804     -5.5548489      1.3363250
H      -1.3550179     -0.6837252      3.4810116
C      -3.5458350     -1.6858408      1.2721181
C      -4.5779766     -0.8875902      0.6761574
C      -2.9798850      0.5228103      1.6061115
C      -1.3757888     -1.1589229      2.4881597
C      -4.2098050      0.4735727      0.7452300
N      -2.5542256     -0.7607209      1.7583536
O      -2.4259945      1.5127991      2.0697948
O      -3.4196154     -2.8886224      1.4325854
H      -5.4934159     -1.3128049      0.2743342
H      -0.4636374     -0.8889081      1.9351927
H      -4.9047346      1.3148362      0.8009161
H      -1.4190360     -2.2491122      2.6026592
          85

O      -1.6203831      2.6400156     -0.5966137
C      -2.7719980      2.3316450     -0.8171357
O      -3.7714705      3.2318506     -0.8708232
C      -3.4490424      4.5989048     -0.6343040
C      -4.6430312      5.4319538     -1.0403005
C      -3.3131015      0.9807684     -1.0154862
N      -2.4495532     -0.0600654     -1.1735563
C      -2.9779133     -1.2075827     -1.4985528
C      -2.2812116     -2.4965039     -1.4675956
C      -2.9150782     -3.6116038     -2.0390656
C      -2.3302504     -4.8746931     -1.9845931
C      -1.1016554     -5.0492045     -1.3452900
C      -0.4683331     -3.9502040     -0.7605801
C      -1.0500467     -2.6866157     -0.8163008
H      -3.2165920      4.7299410      0.4335671
H      -2.5497132      4.8641308     -1.2098009
H      -4.4407075      6.4949941     -0.8533055
H      -5.5313730      5.1383746     -0.4644193
H      -4.8594636      5.2984431     -2.1091044
H      -1.0099022      0.2125405     -0.5448869
H      -4.2673630      0.9572452     -1.5530411
H      -3.9955965     -1.2267196     -1.9125218
H      -3.8829457     -3.4811067     -2.5293443
H      -2.8380385     -5.7282087     -2.4373088
H      -0.6445950     -6.0390191     -1.2944991
H       0.4861598     -4.0766302     -0.2448020
H      -0.5576633     -1.8437966     -0.3319084
H       1.9871763      4.8430343      0.9665370
C       1.7507103      3.8234875      1.2541555
H       3.5900028      2.5609844      1.1316889
H      -0.5676953      5.0390499      2.4895693
C       2.5351709      2.7151218      1.3389886
H      -1.5677668      3.6702658      1.8587036
C      -0.6950975      4.3082079      1.6820547
N       0.4766010      3.4429234      1.6234127
H       6.7046387      0.4105909     -1.6305116
H       6.2304511      1.4170821     -3.8695792
C       5.6727465      0.6020266     -1.9299832
C       5.4054158      1.1730984     -3.1989320
N       1.7194257      1.6837484      1.7637135
H      -0.8062570      4.8120487      0.7167139
C       0.4757584      2.1489982      1.9150256
C       4.6443345      0.2867835     -1.0720962
C       4.1060084      1.4192211     -3.5774508
H       1.9269619      0.3690376      4.0655153
H       4.8619487     -0.1538452     -0.0967907
H       3.8860010      1.8619274     -4.5516746
C       2.1068711      0.3081971      1.9046338
C       2.1592539     -0.2542109      3.2011753
C       3.2888274      0.5265941     -1.4386683
C       3.0218734      1.1073270     -2.7141843
H      -0.4167349      1.5771682      2.1801218
C       2.1986682      0.2158440     -0.5744903
C       1.6703663      1.3651987     -3.0836875
C       2.3869983     -0.4107643      0.7606351
C       2.5027119     -1.5744448      3.3433245
H       1.4699668      1.8061317     -4.0627363
H       2.5483614     -2.0286360      4.3345471
C       0.6339684      1.0818598     -2.2345135
C       0.8931360      0.5086497     -0.9535537
C       2.7461578     -1.7894499      0.9018496
C       2.8058641     -2.3700919      2.2040486
O      -0.0871842      0.2460002     -0.0957977
H      -0.4006569      1.2977846     -2.5020579
C       3.0241135     -2.6078038     -0.2295490
C       3.1580248     -3.7424387      2.3342390
H       2.9573670     -2.1714679     -1.2268924
H       3.2023106     -4.1786844      3.3340845
C       3.3644006     -3.9296406     -0.0700919
C       3.4351012     -4.5035850      1.2247521
H       3.5742613     -4.5454470     -0.9458685
H       3.7057285     -5.5546081      1.3358750
H      -1.3539926     -0.6818607      3.4786243
C      -3.5401835     -1.6860451      1.2745787
C      -4.5845826     -0.8846269      0.6865462
C      -2.9849781      0.5224963      1.6096792
C      -1.3735335     -1.1590341      2.4866809
C      -4.2310033      0.4653304      0.7808592
N      -2.5529119     -0.7630187      1.7566493
O      -2.4263280      1.5115895      2.0679997
O      -3.4192433     -2.8881480      1.4276963
H      -5.4988658     -1.3137383      0.2859406
H      -0.4617596     -0.8893567      1.9331776
H      -4.9133493      1.3169277      0.7965626
H      -1.4152274     -2.2490238      2.6035836
          85

O      -1.6100545      2.6530304     -0.5936028
C      -2.7590665      2.3352805     -0.8146530
O      -3.7663323      3.2296844     -0.8790634
C      -3.4516583      4.5961589     -0.6355645
C      -4.6444697      5.4311453     -1.0408088
C      -3.2931687      0.9863116     -1.0065487
N      -2.4450851     -0.0622254     -1.1719758
C      -2.9766119     -1.2078772     -1.5046512
C      -2.2814792     -2.4984660     -1.4743481
C      -2.9141138     -3.6165627     -2.0423126
C      -2.3283045     -4.8793538     -1.9826784
C      -1.0998661     -5.0518304     -1.3424529
C      -0.4683122     -3.9505673     -0.7605031
C      -1.0508722     -2.6876990     -0.8209362
H      -3.2232819      4.7230454      0.4338034
H      -2.5506180      4.8681865     -1.2052085
H      -4.4411541      6.4925193     -0.8457244
H      -5.5353224      5.1357013     -0.4697627
H      -4.8571101      5.3056686     -2.1112792
H      -1.0119618      0.2061726     -0.5496390
H      -4.2589455      0.9623111     -1.5246172
H      -3.9953903     -1.2223265     -1.9166092
H      -3.8816627     -3.4889476     -2.5340201
H      -2.8355899     -5.7345487     -2.4328237
H      -0.6422683     -6.0412025     -1.2883130
H       0.4855541     -4.0744044     -0.2429132
H      -0.5592475     -1.8438927     -0.3374819
H       1.9843830      4.8425590      0.9685622
C       1.7476535      3.8227872      1.2551486
H       3.5879233      2.5612557      1.1371345
H      -0.5746819      5.0368236      2.4843674
C       2.5324777      2.7147934      1.3416343
H      -1.5721576      3.6676088      1.8505866
C      -0.6996162      4.3060967      1.6763644
N       0.4728195      3.4415020      1.6208879
H       6.7031347      0.4099889     -1.6285095
H       6.2305401      1.4166183     -3.8678675
C       5.6714598      0.6015975     -1.9286268
C       5.4050651      1.1727179     -3.1977323
N       1.7162300      1.6828565      1.7638873
H      -0.8087757      4.8094238      0.7106133
C       0.4720008      2.1475504      1.9123096
C       4.6425194      0.2865443     -1.0712831
C       4.1058976      1.4189808     -3.5769365
H       1.9264460      0.3685464      4.0654264
H       4.8596338     -0.1540567     -0.0958592
H       3.8864131      1.8617873     -4.5512352
C       2.1043577      0.3074570      1.9044130
C       2.1584646     -0.2547081      3.2010149
C       3.2872266      0.5264618     -1.4385314
C       3.0212781      1.1072164     -2.7142829
H      -0.4210078      1.5755044      2.1746878
C       2.1964698      0.2156418     -0.5751284
C       1.6701930      1.3660783     -3.0845714
C       2.3843642     -0.4112130      0.7601157
C       2.5032496     -1.5745871      3.3430511
H       1.4707108      1.8078012     -4.0634528
H       2.5503015     -2.0286233      4.3342767
C       0.6332346      1.0832854     -2.2359676
C       0.8912577      0.5087298     -0.9552216
C       2.7448500     -1.7896149      0.9013081
C       2.8059419     -2.3700903      2.2035398
O      -0.0894760      0.2451515     -0.0987481
H      -0.4009331      1.3011078     -2.5037802
C       3.0228894     -2.6078694     -0.2301521
C       3.1589740     -3.7422200      2.3336201
H       2.9553291     -2.1716237     -1.2274790
H       3.2041810     -4.1783335      3.3334833
C       3.3640287     -3.9295023     -0.0708022
C       3.4357088     -4.5033352      1.2240294
H       3.5737593     -4.5452433     -0.9466558
H       3.7069171     -5.5542179      1.3350724
H      -1.3633564     -0.6771889      3.4770187
C      -3.5376911     -1.6872662      1.2727412
C      -4.5884701     -0.8815157      0.6986833
C      -2.9855495      0.5220553      1.6128596
C      -1.3758526     -1.1569717      2.4862212
C      -4.2400902      0.4629720      0.8167294
N      -2.5508592     -0.7642956      1.7501892
O      -2.4271850      1.5161222      2.0584126
O      -3.4219247     -2.8897167      1.4206540
H      -5.5022667     -1.3083493      0.2946495
H      -0.4614914     -0.8868034      1.9375558
H      -4.9133923      1.3196631      0.8096754
H      -1.4153322     -2.2467533      2.6054323
          85

O      -1.6162642      2.6482342     -0.6004641
C      -2.7647607      2.3317639     -0.8279803
O      -3.7717052      3.2273220     -0.8880425
C      -3.4546020      4.5922517     -0.6392775
C      -4.6456031      5.4309930     -1.0421303
C      -3.2956979      0.9847244     -1.0319281
N      -2.4478943     -0.0639486     -1.1843530
C      -2.9776124     -1.2117503     -1.5137158
C      -2.2820660     -2.5013589     -1.4777143
C      -2.9140605     -3.6205868     -2.0442130
C      -2.3279088     -4.8829842     -1.9829918
C      -1.0995930     -5.0542125     -1.3421935
C      -0.4689858     -3.9519917     -0.7609062
C      -1.0518493     -2.6893184     -0.8230635
H      -3.2261661      4.7150432      0.4305666
H      -2.5528822      4.8646675     -1.2076887
H      -4.4398420      6.4914999     -0.8448788
H      -5.5370180      5.1363296     -0.4715471
H      -4.8588913      5.3082798     -2.1128013
H      -1.0124601      0.2077820     -0.5529478
H      -4.2631121      0.9573623     -1.5461755
H      -3.9947694     -1.2282223     -1.9295642
H      -3.8813237     -3.4937650     -2.5366913
H      -2.8346527     -5.7388323     -2.4325351
H      -0.6413947     -6.0432456     -1.2870646
H       0.4847285     -4.0749089     -0.2427905
H      -0.5605660     -1.8446661     -0.3407485
H       1.9834964      4.8421179      0.9686735
C       1.7466697      3.8223257      1.2551103
H       3.5871392      2.5609148      1.1384590
H      -0.5784301      5.0350048      2.4825337
C       2.5315224      2.7143885      1.3421533
H      -1.5738908      3.6652909      1.8460780
C      -0.7014850      4.3046053      1.6739582
N       0.4715970      3.4408436      1.6198397
H       6.7025889      0.4097268     -1.6280905
H       6.2304140      1.4165625     -3.8674598
C       5.6709737      0.6014254     -1.9283546
C       5.4048350      1.1726346     -3.1974632
N       1.7150395      1.6823645      1.7637491
H      -0.8095657      4.8083030      0.7082620
C       0.4705483      2.1468742      1.9110461
C       4.6418881      0.2863891     -1.0711221
C       4.1057254      1.4188911     -3.5768147
H       1.9263139      0.3683390      4.0654077
H       4.8589630     -0.1542646     -0.0957128
H       3.8863076      1.8617163     -4.5511163
C       2.1034882      0.3070734      1.9043228
C       2.1581766     -0.2549296      3.2009706
C       3.2866032      0.5263354     -1.4384796
C       3.0210081      1.1070456     -2.7143129
H      -0.4227615      1.5745243      2.1717509
C       2.1954670      0.2154815     -0.5752820
C       1.6700603      1.3657825     -3.0850787
C       2.3834509     -0.4114533      0.7599453
C       2.5034019     -1.5746907      3.3429366
H       1.4708620      1.8074159     -4.0640519
H       2.5508764     -2.0286962      4.3341552
C       0.6328642      1.0829085     -2.2368746
C       0.8904113      0.5084239     -0.9560857
C       2.7444808     -1.7897174      0.9011038
C       2.8059896     -2.3701264      2.2033491
O      -0.0915444      0.2447511     -0.1005847
H      -0.4012683      1.3005700     -2.5049089
C       3.0225003     -2.6079026     -0.2303893
C       3.1592402     -3.7421926      2.3333903
H       2.9546567     -2.1716996     -1.2277147
H       3.2047011     -4.1782862      3.3332496
C       3.3638566     -3.9294804     -0.0710723
C       3.4358288     -4.5032857      1.2237485
H       3.5734992     -4.5452099     -0.9469528
H       3.7071600     -5.5541405      1.3347481
H      -1.3764831     -0.6738959      3.4708775
C      -3.5433084     -1.6899379      1.2629537
C      -4.5949606     -0.8864023      0.6829518
C      -2.9974997      0.5205372      1.6012179
C      -1.3860220     -1.1554903      2.4809684
C      -4.2526868      0.4571763      0.8038797
N      -2.5601183     -0.7656095      1.7414093
O      -2.4402362      1.5144734      2.0481972
O      -3.4281061     -2.8917676      1.4132965
H      -5.5063774     -1.3166806      0.2771044
H      -0.4707407     -0.8852928      1.9337912
H      -4.9256514      1.3138106      0.7878682
H      -1.4244502     -2.2450754      2.6022100
          85

O      -1.6227790      2.6427710     -0.6076127
C      -2.7708894      2.3282011     -0.8411038
O      -3.7776225      3.2247738     -0.8969063
C      -3.4576612      4.5880813     -0.6432286
C      -4.6465492      5.4309753     -1.0435298
C      -3.2984269      0.9829245     -1.0553532
N      -2.4507834     -0.0655011     -1.1976987
C      -2.9788623     -1.2156364     -1.5229690
C      -2.2825638     -2.5042184     -1.4808597
C      -2.9140613     -3.6244983     -2.0457800
C      -2.3275598     -4.8864923     -1.9833475
C      -1.0993115     -5.0565710     -1.3421340
C      -0.4696275     -3.9535510     -0.7612551
C      -1.0527365     -2.6909956     -0.8249078
H      -3.2288548      4.7068059      0.4270055
H      -2.5552718      4.8604404     -1.2106231
H      -4.4378590      6.4905093     -0.8441243
H      -5.5385532      5.1374950     -0.4732484
H      -4.8606603      5.3111234     -2.1143667
H      -1.0127754      0.2095934     -0.5565391
H      -4.2678386      0.9523524     -1.5657432
H      -3.9944933     -1.2346614     -1.9424376
H      -3.8810471     -3.4982814     -2.5389541
H      -2.8337618     -5.7428882     -2.4324824
H      -0.6404645     -6.0452602     -1.2863294
H       0.4839546     -4.0757257     -0.2426929
H      -0.5616833     -1.8455648     -0.3437118
H       1.9828479      4.8416124      0.9685167
C       1.7458210      3.8218524      1.2549476
H       3.5864793      2.5605514      1.1395096
H      -0.5820270      5.0331937      2.4807667
C       2.5307180      2.7139766      1.3425245
H      -1.5754079      3.6628573      1.8418686
C      -0.7032119      4.3030523      1.6716871
N       0.4705654      3.4402057      1.6188679
H       6.7020778      0.4094030     -1.6278158
H       6.2302376      1.4166258     -3.8670792
C       5.6705093      0.6012300     -1.9281558
C       5.4045743      1.1726119     -3.1972187
N       1.7140608      1.6819182      1.7636786
H      -0.8103665      4.8070268      0.7060136
C       0.4693412      2.1462612      1.9100472
C       4.6413240      0.2861927     -1.0709845
C       4.1055100      1.4188234     -3.5766880
H       1.9263347      0.3682070      4.0654489
H       4.8583999     -0.1545614     -0.0956208
H       3.8861134      1.8616871     -4.5509729
C       2.1028070      0.3067354      1.9042931
C       2.1580104     -0.2550829      3.2009838
C       3.2860355      0.5262079     -1.4383896
C       3.0207455      1.1068280     -2.7143137
H      -0.4242634      1.5736764      2.1692994
C       2.1945460      0.2153509     -0.5753469
C       1.6699275      1.3654061     -3.0855266
C       2.3826533     -0.4116635      0.7598297
C       2.5036057     -1.5747447      3.3428256
H       1.4709699      1.8069167     -4.0645963
H       2.5514963     -2.0287520      4.3340215
C       0.6325468      1.0825379     -2.2376509
C       0.8896553      0.5081536     -0.9568346
C       2.7441185     -1.7898098      0.9008769
C       2.8060411     -2.3701157      2.2031414
O      -0.0936371      0.2444201     -0.1023842
H      -0.4015573      1.3000689     -2.5058260
C       3.0220699     -2.6079188     -0.2306783
C       3.1595272     -3.7421087      2.3331201
H       2.9539341     -2.1717487     -1.2279962
H       3.2052896     -4.1781886      3.3329700
C       3.3636519     -3.9294391     -0.0714039
C       3.4359507     -4.5031805      1.2234209
H       3.5732012     -4.5451686     -0.9473048
H       3.7074317     -5.5539984      1.3343949
H      -1.3904700     -0.6702605      3.4644484
C      -3.5490372     -1.6928639      1.2526069
C      -4.6003753     -0.8912444      0.6661345
C      -3.0091627      0.5189504      1.5896157
C      -1.3969084     -1.1538434      2.4755145
C      -4.2640120      0.4516968      0.7912867
N      -2.5696864     -0.7669863      1.7324174
O      -2.4538187      1.5133089      2.0377515
O      -3.4348038     -2.8940711      1.4062726
H      -5.5094186     -1.3242478      0.2577768
H      -0.4806562     -0.8835451      1.9299484
H      -4.9367019      1.3080827      0.7670147
H      -1.4340984     -2.2432106      2.5989506
          85

O      -1.6304976      2.6349620     -0.6145182
C      -2.7784496      2.3245930     -0.8548786
O      -3.7842001      3.2227787     -0.9041924
C      -3.4600808      4.5844418     -0.6469752
C      -4.6472521      5.4307583     -1.0449580
C      -3.3021232      0.9812854     -1.0801957
N      -2.4543438     -0.0666531     -1.2109962
C      -2.9803495     -1.2194906     -1.5310948
C      -2.2828966     -2.5067003     -1.4825849
C      -2.9141173     -3.6273749     -2.0467292
C      -2.3275070     -4.8890322     -1.9840520
C      -1.0994208     -5.0584993     -1.3424137
C      -0.4701885     -3.9551505     -0.7616132
C      -1.0531694     -2.6925020     -0.8260396
H      -3.2301125      4.7000125      0.4233564
H      -2.5573077      4.8556855     -1.2143091
H      -4.4364552      6.4896261     -0.8442593
H      -5.5394167      5.1381312     -0.4744812
H      -4.8623702      5.3126591     -2.1157909
H      -1.0124926      0.2127394     -0.5589574
H      -4.2740436      0.9477683     -1.5891010
H      -3.9939907     -1.2417553     -1.9552571
H      -3.8807972     -3.5011124     -2.5404701
H      -2.8332586     -5.7456046     -2.4333660
H      -0.6401642     -6.0469783     -1.2863920
H       0.4833926     -4.0771504     -0.2429835
H      -0.5619041     -1.8464752     -0.3460941
H       1.9823945      4.8411978      0.9682005
C       1.7453467      3.8214422      1.2546331
H       3.5861174      2.5601807      1.1399361
H      -0.5843069      5.0318001      2.4797372
C       2.5302767      2.7136050      1.3425758
H      -1.5763276      3.6610033      1.8391414
C      -0.7043073      4.3018847      1.6702928
N       0.4699810      3.4397016      1.6181045
H       6.7017121      0.4089999     -1.6278376
H       6.2300112      1.4167846     -3.8668053
C       5.6701575      0.6010302     -1.9280879
C       5.4042952      1.1726737     -3.1970468
N       1.7135470      1.6815805      1.7636236
H      -0.8110132      4.8060904      0.7046785
C       0.4686559      2.1458074      1.9094340
C       4.6409725      0.2859752     -1.0708941
C       4.1052736      1.4188038     -3.5766307
H       1.9264472      0.3682975      4.0654788
H       4.8580725     -0.1549811     -0.0956285
H       3.8858668      1.8616682     -4.5509073
C       2.1024732      0.3064999      1.9042820
C       2.1579438     -0.2550672      3.2010268
C       3.2856982      0.5261538     -1.4382945
C       3.0205336      1.1066104     -2.7143064
H      -0.4251218      1.5730122      2.1677505
C       2.1939884      0.2152901     -0.5753016
C       1.6697826      1.3648931     -3.0858118
C       2.3822061     -0.4118233      0.7597721
C       2.5037711     -1.5746627      3.3427337
H       1.4708822      1.8062063     -4.0649716
H       2.5519836     -2.0286878      4.3339035
C       0.6323276      1.0819768     -2.2381223
C       0.8892519      0.5078674     -0.9573043
C       2.7437664     -1.7899212      0.9006421
C       2.8060368     -2.3700209      2.2029582
O      -0.0951709      0.2441706     -0.1035042
H      -0.4017760      1.2993226     -2.5063158
C       3.0217268     -2.6079586     -0.2309776
C       3.1597629     -3.7419395      2.3328339
H       2.9534556     -2.1717758     -1.2282805
H       3.2058600     -4.1780126      3.3326693
C       3.3634830     -3.9294372     -0.0717635
C       3.4360152     -4.5030419      1.2231013
H       3.5730138     -4.5451719     -0.9476636
H       3.7076249     -5.5538191      1.3341363
H      -1.4026961     -0.6667936      3.4575752
C      -3.5546713     -1.6956248      1.2429235
C      -4.6045847     -0.8960616      0.6487843
C      -3.0199913      0.5171311      1.5780586
C      -1.4077598     -1.1523057      2.4695996
C      -4.2733492      0.4468009      0.7761731
N      -2.5799902     -0.7683722      1.7247624
O      -2.4674548      1.5112999      2.0290213
O      -3.4407316     -2.8960774      1.4004377
H      -5.5112158     -1.3317593      0.2378629
H      -0.4913330     -0.8819898      1.9242692
H      -4.9454448      1.3028325      0.7436433
H      -1.4436934     -2.2414470      2.5950874
          85

O      -1.6386347      2.6272857     -0.6208068
C      -2.7867110      2.3200376     -0.8678838
O      -3.7891811      3.2218330     -0.9090542
C      -3.4612400      4.5825418     -0.6497367
C      -4.6480740      5.4302413     -1.0462553
C      -3.3108951      0.9785721     -1.1110396
N      -2.4583920     -0.0676330     -1.2205095
C      -2.9811655     -1.2226863     -1.5361904
C      -2.2833506     -2.5083516     -1.4829736
C      -2.9141468     -3.6289985     -2.0475468
C      -2.3277723     -4.8904658     -1.9850868
C      -1.1000137     -5.0598204     -1.3428169
C      -0.4708045     -3.9562900     -0.7621037
C      -1.0534538     -2.6935080     -0.8268840
H      -3.2301857      4.6965206      0.4204312
H      -2.5586759      4.8523791     -1.2181021
H      -4.4368111      6.4890388     -0.8457147
H      -5.5398839      5.1375397     -0.4752806
H      -4.8642520      5.3121315     -2.1168598
H      -1.0122806      0.2160988     -0.5590396
H      -4.2787407      0.9415043     -1.6221983
H      -3.9926789     -1.2478556     -1.9650613
H      -3.8808171     -3.5026992     -2.5411853
H      -2.8335772     -5.7470400     -2.4343533
H      -0.6405976     -6.0482163     -1.2867506
H       0.4827428     -4.0782124     -0.2434025
H      -0.5618505     -1.8472018     -0.3478281
H       1.9822366      4.8408723      0.9678644
C       1.7451836      3.8211196      1.2542998
H       3.5859698      2.5599071      1.1396180
H      -0.5848856      5.0312445      2.4794425
C       2.5301293      2.7133180      1.3423902
H      -1.5767701      3.6602864      1.8382000
C      -0.7047059      4.3014179      1.6698812
N       0.4697654      3.4394256      1.6176973
H       6.7014788      0.4086233     -1.6279675
H       6.2296807      1.4168148     -3.8668047
C       5.6699478      0.6009221     -1.9281168
C       5.4040470      1.1727255     -3.1969418
N       1.7134482      1.6813893      1.7635208
H      -0.8114071      4.8059456      0.7043793
C       0.4684581      2.1455423      1.9089361
C       4.6408359      0.2858060     -1.0708675
C       4.1051041      1.4188120     -3.5766648
H       1.9265171      0.3684807      4.0654634
H       4.8580138     -0.1553576     -0.0957438
H       3.8858304      1.8615910     -4.5509633
C       2.1022725      0.3063322      1.9042117
C       2.1578855     -0.2549660      3.2010278
C       3.2856466      0.5261772     -1.4382517
C       3.0204549      1.1064420     -2.7143558
H      -0.4252260      1.5722881      2.1664818
C       2.1938263      0.2153231     -0.5752765
C       1.6696769      1.3644553     -3.0859948
C       2.3821087     -0.4119126      0.7596914
C       2.5038116     -1.5745656      3.3426692
H       1.4705549      1.8053986     -4.0653080
H       2.5520113     -2.0286439      4.3337913
C       0.6322333      1.0812447     -2.2384094
C       0.8891353      0.5074780     -0.9574998
C       2.7434176     -1.7900404      0.9005191
C       2.8060513     -2.3699164      2.2028681
O      -0.0957527      0.2439616     -0.1037767
H      -0.4019641      1.2980179     -2.5067416
C       3.0216279     -2.6080140     -0.2311193
C       3.1598490     -3.7418291      2.3326074
H       2.9532566     -2.1716649     -1.2283644
H       3.2062317     -4.1778967      3.3324308
C       3.3634013     -3.9294988     -0.0720095
C       3.4360164     -4.5029847      1.2229153
H       3.5729594     -4.5453032     -0.9478509
H       3.7076169     -5.5537453      1.3340897
H      -1.4080190     -0.6662877      3.4530043
C      -3.5603463     -1.6968431      1.2363245
C      -4.6115286     -0.9013598      0.6330729
C      -3.0313287      0.5162035      1.5675764
C      -1.4138601     -1.1525081      2.4654782
C      -4.2845071      0.4420079      0.7523412
N      -2.5879359     -0.7689491      1.7200740
O      -2.4768715      1.5070294      2.0248494
O      -3.4442684     -2.8967162      1.3955734
H      -5.5158366     -1.3425746      0.2227647
H      -0.4977475     -0.8830746      1.9190617
H      -4.9593336      1.2964522      0.7186800
H      -1.4506163     -2.2415103      2.5921175
          85

O      -1.6468937      2.6197892     -0.6274019
C      -2.7951085      2.3160906     -0.8812337
O      -3.7942685      3.2209249     -0.9142912
C      -3.4625472      4.5806708     -0.6519551
C      -4.6489071      5.4299723     -1.0470422
C      -3.3192019      0.9756734     -1.1415018
N      -2.4628776     -0.0684040     -1.2310342
C      -2.9820993     -1.2261420     -1.5414288
C      -2.2837765     -2.5101807     -1.4839212
C      -2.9144092     -3.6309091     -2.0485503
C      -2.3281144     -4.8921848     -1.9858973
C      -1.1004457     -5.0610049     -1.3432458
C      -0.4713691     -3.9571475     -0.7626022
C      -1.0540802     -2.6943918     -0.8274338
H      -3.2309584      4.6924386      0.4183137
H      -2.5598836      4.8495773     -1.2206060
H      -4.4373369      6.4889047     -0.8476948
H      -5.5401923      5.1374964     -0.4751158
H      -4.8666069      5.3109513     -2.1172599
H      -1.0120414      0.2201574     -0.5594958
H      -4.2887466      0.9355746     -1.6525281
H      -3.9919040     -1.2544212     -1.9739973
H      -3.8808039     -3.5043501     -2.5427512
H      -2.8334396     -5.7488453     -2.4355647
H      -0.6409766     -6.0493502     -1.2868179
H       0.4823813     -4.0790016     -0.2442384
H      -0.5628266     -1.8475286     -0.3490500
H       1.9821089      4.8408333      0.9675481
C       1.7451213      3.8211087      1.2541575
H       3.5858064      2.5596849      1.1395889
H      -0.5859824      5.0305594      2.4793914
C       2.5299581      2.7132230      1.3421879
H      -1.5769978      3.6594764      1.8365417
C      -0.7048829      4.3009626      1.6695272
N       0.4697096      3.4393499      1.6176315
H       6.7016030      0.4089686     -1.6279546
H       6.2298276      1.4167292     -3.8669329
C       5.6700468      0.6009777     -1.9282006
C       5.4041357      1.1726187     -3.1971451
N       1.7130188      1.6812420      1.7630554
H      -0.8110969      4.8058090      0.7041342
C       0.4679537      2.1453484      1.9081710
C       4.6408398      0.2858659     -1.0710097
C       4.1051157      1.4187566     -3.5767041
H       1.9262268      0.3681169      4.0653084
H       4.8579898     -0.1551287     -0.0957718
H       3.8856780      1.8615808     -4.5509848
C       2.1020561      0.3062363      1.9040666
C       2.1576565     -0.2552544      3.2008540
C       3.2855328      0.5260296     -1.4384078
C       3.0203753      1.1065198     -2.7143592
H      -0.4258163      1.5718319      2.1649710
C       2.1935908      0.2151055     -0.5753753
C       1.6695768      1.3640100     -3.0861680
C       2.3819826     -0.4120014      0.7596418
C       2.5036341     -1.5748163      3.3426229
H       1.4706131      1.8047285     -4.0655736
H       2.5518615     -2.0287923      4.3338147
C       0.6319814      1.0803781     -2.2388939
C       0.8889534      0.5072390     -0.9578738
C       2.7437399     -1.7900149      0.9005741
C       2.8059982     -2.3701455      2.2028870
O      -0.0966491      0.2437718     -0.1042795
H      -0.4023870      1.2960796     -2.5074050
C       3.0216994     -2.6080092     -0.2310188
C       3.1597031     -3.7420605      2.3327965
H       2.9533467     -2.1719039     -1.2283469
H       3.2057279     -4.1781396      3.3326298
C       3.3634328     -3.9294845     -0.0717858
C       3.4359316     -4.5031432      1.2230490
H       3.5729213     -4.5452063     -0.9477006
H       3.7074716     -5.5539416      1.3340356
H      -1.4138408     -0.6660068      3.4486128
C      -3.5657805     -1.6982524      1.2298158
C      -4.6185664     -0.9071570      0.6180001
C      -3.0417375      0.5152890      1.5570850
C      -1.4200539     -1.1524840      2.4613367
C      -4.2967875      0.4373426      0.7283387
N      -2.5959164     -0.7695820      1.7152934
O      -2.4863012      1.5031374      2.0204020
O      -3.4475021     -2.8975085      1.3908798
H      -5.5202711     -1.3546008      0.2082655
H      -0.5043230     -0.8832620      1.9140682
H      -4.9733218      1.2902026      0.6946917
H      -1.4570838     -2.2413986      2.5885921
          85

O      -1.6543060      2.6133093     -0.6353409
C      -2.8021304      2.3125855     -0.8948565
O      -3.8009994      3.2186112     -0.9234189
C      -3.4659974      4.5762916     -0.6547199
C      -4.6498045      5.4303227     -1.0470719
C      -3.3221344      0.9747649     -1.1638495
N      -2.4665549     -0.0696580     -1.2457318
C      -2.9842794     -1.2298415     -1.5512810
C      -2.2846978     -2.5128702     -1.4872716
C      -2.9145485     -3.6348646     -2.0502391
C      -2.3276924     -4.8956382     -1.9861095
C      -1.0999668     -5.0629015     -1.3431813
C      -0.4721368     -3.9581468     -0.7628711
C      -1.0555754     -2.6956861     -0.8289708
H      -3.2344807      4.6828153      0.4161138
H      -2.5622835      4.8453831     -1.2216308
H      -4.4344908      6.4882950     -0.8466073
H      -5.5415510      5.1401433     -0.4746907
H      -4.8689176      5.3133506     -2.1172361
H      -1.0124100      0.2227872     -0.5636835
H      -4.2901102      0.9313857     -1.6731010
H      -3.9929936     -1.2614891     -1.9862197
H      -3.8805324     -3.5091479     -2.5454589
H      -2.8322408     -5.7530128     -2.4353044
H      -0.6395151     -6.0507511     -1.2861672
H       0.4815203     -4.0790674     -0.2440795
H      -0.5649215     -1.8479840     -0.3514413
H       1.9819721      4.8408195      0.9685834
C       1.7446877      3.8210047      1.2546428
H       3.5852127      2.5592659      1.1405946
H      -0.5897972      5.0286343      2.4785767
C       2.5292493      2.7128906      1.3425584
H      -1.5782529      3.6573922      1.8316624
C      -0.7062665      4.2998743      1.6676203
N       0.4690130      3.4391735      1.6171127
H       6.7014183      0.4092822     -1.6277103
H       6.2298630      1.4164472     -3.8671203
C       5.6699042      0.6011427     -1.9281971
C       5.4041577      1.1724826     -3.1972957
N       1.7119222      1.6808050      1.7624941
H      -0.8110235      4.8056682      0.7025553
C       0.4667817      2.1450332      1.9069653
C       4.6405654      0.2860658     -1.0710524
C       4.1051346      1.4186448     -3.5768012
H       1.9252570      0.3678002      4.0650607
H       4.8578136     -0.1547346     -0.0957440
H       3.8856518      1.8613744     -4.5511115
C       2.1012497      0.3058542      1.9037973
C       2.1569110     -0.2555532      3.2006583
C       3.2851449      0.5258604     -1.4385123
C       3.0203251      1.1063974     -2.7145051
H      -0.4273973      1.5714441      2.1622118
C       2.1928036      0.2146478     -0.5756555
C       1.6696287      1.3636195     -3.0868078
C       2.3814991     -0.4123577      0.7594604
C       2.5031358     -1.5750371      3.3425888
H       1.4708791      1.8042505     -4.0662866
H       2.5511505     -2.0289230      4.3338313
C       0.6318374      1.0797370     -2.2399833
C       0.8883096      0.5067881     -0.9588858
C       2.7440138     -1.7901943      0.9006836
C       2.8059460     -2.3703883      2.2030079
O      -0.0989428      0.2436682     -0.1065379
H      -0.4024754      1.2953417     -2.5086647
C       3.0221918     -2.6082135     -0.2307735
C       3.1593340     -3.7423772      2.3331320
H       2.9540307     -2.1722152     -1.2281594
H       3.2048827     -4.1784398      3.3329931
C       3.3636779     -3.9297304     -0.0713655
C       3.4357358     -4.5034822      1.2234469
H       3.5732195     -4.5454982     -0.9472321
H       3.7069897     -5.5543550      1.3344166
H      -1.4287033     -0.6623775      3.4420996
C      -3.5710154     -1.7015261      1.2199088
C      -4.6225621     -0.9118953      0.6022302
C      -3.0532799      0.5134042      1.5451600
C      -1.4314077     -1.1499427      2.4553663
C      -4.3054945      0.4315736      0.7182147
N      -2.6058487     -0.7708994      1.7063593
O      -2.5009214      1.5023262      2.0090041
O      -3.4533004     -2.9000692      1.3847921
H      -5.5219992     -1.3606750      0.1891354
H      -0.5150436     -0.8791708      1.9099634
H      -4.9818179      1.2842651      0.6738357
H      -1.4658658     -2.2387757      2.5837921
          85

O      -1.6611057      2.6079885     -0.6428481
C      -2.8083799      2.3089241     -0.9083744
O      -3.8067331      3.2161084     -0.9327388
C      -3.4692798      4.5719779     -0.6577510
C      -4.6509626      5.4302722     -1.0472834
C      -3.3252243      0.9730579     -1.1887397
N      -2.4700159     -0.0712712     -1.2583535
C      -2.9856878     -1.2334455     -1.5607330
C      -2.2856696     -2.5155099     -1.4910376
C      -2.9146225     -3.6388875     -2.0523859
C      -2.3271942     -4.8991708     -1.9863529
C      -1.0996006     -5.0648819     -1.3427597
C      -0.4730412     -3.9589708     -0.7631767
C      -1.0570658     -2.6968494     -0.8312291
H      -3.2380274      4.6734874      0.4136310
H      -2.5647068      4.8417220     -1.2229886
H      -4.4326361      6.4871959     -0.8445347
H      -5.5433138      5.1412453     -0.4752553
H      -4.8709222      5.3163868     -2.1176159
H      -1.0128925      0.2249520     -0.5671155
H      -4.2945668      0.9264827     -1.6949564
H      -3.9929096     -1.2674421     -1.9989996
H      -3.8802941     -3.5143032     -2.5485071
H      -2.8310336     -5.7573638     -2.4348106
H      -0.6383650     -6.0522922     -1.2845828
H       0.4804068     -4.0786796     -0.2436893
H      -0.5670165     -1.8482114     -0.3547652
H       1.9814963      4.8406414      0.9695471
C       1.7439606      3.8207395      1.2550937
H       3.5845207      2.5589201      1.1421073
H      -0.5937710      5.0267639      2.4770504
C       2.5283882      2.7125301      1.3432180
H      -1.5798770      3.6552783      1.8266031
C      -0.7079813      4.2986205      1.6652335
N       0.4679563      3.4387452      1.6162724
H       6.7010327      0.4093872     -1.6272991
H       6.2298971      1.4162899     -3.8669368
C       5.6695742      0.6011902     -1.9280115
C       5.4040902      1.1723839     -3.1972175
N       1.7106696      1.6803073      1.7620639
H      -0.8112607      4.8051601      0.7003859
C       0.4653654      2.1444921      1.9055038
C       4.6400895      0.2861344     -1.0709691
C       4.1051208      1.4184837     -3.5768803
H       1.9243387      0.3676355      4.0647761
H       4.8573213     -0.1545756     -0.0956142
H       3.8856810      1.8611334     -4.5512326
C       2.1002188      0.3054196      1.9034928
C       2.1561155     -0.2557763      3.2004541
C       3.2846522      0.5257088     -1.4386159
C       3.0202250      1.1061920     -2.7147145
H      -0.4291248      1.5706478      2.1590263
C       2.1919260      0.2142807     -0.5760062
C       1.6696906      1.3632899     -3.0875525
C       2.3807108     -0.4127265      0.7591836
C       2.5026969     -1.5751421      3.3425288
H       1.4712512      1.8038736     -4.0671082
H       2.5507414     -2.0289296      4.3338148
C       0.6316609      1.0792724     -2.2411617
C       0.8876120      0.5063586     -0.9600280
C       2.7439128     -1.7904034      0.9006389
C       2.8057771     -2.3705042      2.2030292
O      -0.1009618      0.2433684     -0.1087102
H      -0.4026213      1.2947648     -2.5100345
C       3.0225109     -2.6084586     -0.2306649
C       3.1590900     -3.7424976      2.3333275
H       2.9545615     -2.1725550     -1.2281066
H       3.2044064     -4.1784902      3.3332288
C       3.3639161     -3.9299824     -0.0710979
C       3.4355878     -4.5037088      1.2237387
H       3.5736376     -4.5457881     -0.9468925
H       3.7066589     -5.5546179      1.3348043
H      -1.4417601     -0.6592331      3.4361580
C      -3.5765115     -1.7042698      1.2105000
C      -4.6287898     -0.9170887      0.5871836
C      -3.0650755      0.5118214      1.5336276
C      -1.4412579     -1.1480351      2.4500733
C      -4.3174862      0.4258065      0.7050781
N      -2.6148779     -0.7720549      1.6977480
O      -2.5142190      1.5010531      1.9983493
O      -3.4588928     -2.9022000      1.3777461
H      -5.5256406     -1.3692478      0.1720062
H      -0.5241305     -0.8764837      1.9063152
H      -4.9934006      1.2781371      0.6528854
H      -1.4741151     -2.2367405      2.5799412
          85

O      -1.6677666      2.6027460     -0.6502546
C      -2.8143716      2.3052789     -0.9221156
O      -3.8122055      3.2136571     -0.9421707
C      -3.4724187      4.5677369     -0.6609419
C      -4.6522219      5.4299405     -1.0476552
C      -3.3280329      0.9715061     -1.2142370
N      -2.4735406     -0.0729728     -1.2708882
C      -2.9870239     -1.2371225     -1.5701432
C      -2.2865288     -2.5181559     -1.4947910
C      -2.9146123     -3.6428559     -2.0546051
C      -2.3267110     -4.9026776     -1.9866225
C      -1.0993324     -5.0669084     -1.3422238
C      -0.4738991     -3.9598511     -0.7635107
C      -1.0583754     -2.6980222     -0.8336159
H      -3.2414338      4.6643331      0.4109581
H      -2.5670517      4.8382589     -1.2245491
H      -4.4314465      6.4858526     -0.8422705
H      -5.5451504      5.1414604     -0.4762415
H      -4.8727591      5.3193282     -2.1182210
H      -1.0133594      0.2271517     -0.5703407
H      -4.2986017      0.9218353     -1.7172547
H      -3.9927342     -1.2735610     -2.0117266
H      -3.8799382     -3.5193255     -2.5516693
H      -2.8298679     -5.7616636     -2.4343599
H      -0.6374411     -6.0539287     -1.2827367
H       0.4793433     -4.0784047     -0.2433509
H      -0.5688269     -1.8484433     -0.3583438
H       1.9808250      4.8404232      0.9704206
C       1.7430852      3.8204282      1.2554700
H       3.5837892      2.5586570      1.1438119
H      -0.5977051      5.0248523      2.4754033
C       2.5274559      2.7121923      1.3439501
H      -1.5816365      3.6532195      1.8215306
C      -0.7097922      4.2973349      1.6627414
N       0.4667418      3.4382087      1.6152500
H       6.7005909      0.4094128     -1.6267878
H       6.2299326      1.4161523     -3.8666134
C       5.6691962      0.6011794     -1.9277397
C       5.4040010      1.1722791     -3.1970367
N       1.7093675      1.6798009      1.7616570
H      -0.8116149      4.8046443      0.6981284
C       0.4638608      2.1438605      1.9039337
C       4.6395401      0.2861297     -1.0708465
C       4.1050995      1.4183207     -3.5769128
H       1.9235090      0.3674919      4.0644909
H       4.8567008     -0.1545260     -0.0954505
H       3.8857543      1.8609069     -4.5513116
C       2.0991363      0.3049831      1.9031819
C       2.1553449     -0.2559879      3.2002391
C       3.2841136      0.5255508     -1.4387198
C       3.0200801      1.1059916     -2.7149178
H      -0.4308765      1.5696920      2.1557590
C       2.1910074      0.2139510     -0.5763680
C       1.6697009      1.3629683     -3.0882908
C       2.3798192     -0.4130840      0.7588807
C       2.5023169     -1.5752266      3.3424301
H       1.4715779      1.8034846     -4.0679339
H       2.5505048     -2.0289176      4.3337525
C       0.6314160      1.0788138     -2.2423415
C       0.8868883      0.5059642     -0.9611691
C       2.7436674     -1.7906048      0.9005235
C       2.8055756     -2.3705894      2.2029820
O      -0.1029142      0.2430365     -0.1107979
H      -0.4028402      1.2941379     -2.5114344
C       3.0226579     -2.6086853     -0.2306442
C       3.1589243     -3.7425545      2.3334425
H       2.9548352     -2.1728860     -1.2281401
H       3.2041206     -4.1784603      3.3333864
C       3.3641000     -3.9301852     -0.0709237
C       3.4355115     -4.5038596      1.2239419
H       3.5740047     -4.5460237     -0.9466489
H       3.7065024     -5.5547784      1.3351029
H      -1.4543399     -0.6560585      3.4299483
C      -3.5820741     -1.7069145      1.2012292
C      -4.6354199     -0.9222174      0.5726456
C      -3.0769011      0.5102603      1.5222060
C      -1.4510310     -1.1462737      2.4446150
C      -4.3298279      0.4200523      0.6920682
N      -2.6240174     -0.7732049      1.6892404
O      -2.5272176      1.4995165      1.9879871
O      -3.4643251     -2.9042510      1.3704456
H      -5.5295736     -1.3779397      0.1554358
H      -0.5332505     -0.8742407      1.9021876
H      -5.0052053      1.2721128      0.6314770
H      -1.4825241     -2.2348166      2.5761074
          85

O      -1.6578537      2.6147451     -0.6476031
C      -2.8020655      2.3082699     -0.9199844
O      -3.8070128      3.2114687     -0.9510989
C      -3.4751762      4.5645487     -0.6606767
C      -4.6543014      5.4285329     -1.0454418
C      -3.3097062      0.9769462     -1.2057863
N      -2.4697647     -0.0751953     -1.2684758
C      -2.9863273     -1.2369850     -1.5764572
C      -2.2873389     -2.5194721     -1.5023210
C      -2.9137189     -3.6473365     -2.0587299
C      -2.3246352     -4.9067273     -1.9846775
C      -1.0977328     -5.0684315     -1.3386095
C      -0.4742548     -3.9586934     -0.7632325
C      -1.0597849     -2.6977979     -0.8388989
H      -3.2484780      4.6553436      0.4129525
H      -2.5681451      4.8431029     -1.2179484
H      -4.4336075      6.4826401     -0.8300937
H      -5.5496122      5.1362773     -0.4796403
H      -4.8706906      5.3275521     -2.1179306
H      -1.0153324      0.2212435     -0.5752382
H      -4.2886218      0.9264791     -1.6914474
H      -3.9934299     -1.2685002     -2.0154208
H      -3.8785907     -3.5270658     -2.5575920
H      -2.8269528     -5.7677353     -2.4295739
H      -0.6353314     -6.0549717     -1.2748664
H       0.4782336     -4.0742324     -0.2409189
H      -0.5714285     -1.8469309     -0.3647304
H       1.9786937      4.8405601      0.9744850
C       1.7403290      3.8201456      1.2575156
H       3.5819154      2.5591957      1.1505321
H      -0.6049176      5.0225909      2.4705113
C       2.5248413      2.7120892      1.3472381
H      -1.5860961      3.6511038      1.8122502
C      -0.7141754      4.2957370      1.6568068
N       0.4629668      3.4371147      1.6126307
H       6.6994357      0.4095274     -1.6244740
H       6.2305615      1.4156556     -3.8649645
C       5.6682705      0.6011247     -1.9263322
C       5.4041179      1.1719032     -3.1959750
N       1.7058001      1.6789066      1.7610620
H      -0.8133191      4.8032673      0.6920759
C       0.4597332      2.1425040      1.9001055
C       4.6379846      0.2861547     -1.0701561
C       4.1054857      1.4178753     -3.5767834
H       1.9210197      0.3672985      4.0635971
H       4.8545206     -0.1542447     -0.0945085
H       3.8867772      1.8603825     -4.5513644
C       2.0960544      0.3041771      1.9023053
C       2.1531309     -0.2563637      3.1995469
C       3.2828017      0.5252729     -1.4390336
C       3.0198752      1.1057120     -2.7155161
H      -0.4357161      1.5681230      2.1485533
C       2.1890700      0.2133802     -0.5775842
C       1.6699465      1.3636356     -3.0898330
C       2.3772258     -0.4137776      0.7579469
C       2.5011758     -1.5752438      3.3421265
H       1.4728333      1.8049173     -4.0693399
H       2.5499687     -2.0286268      4.3335609
C       0.6310348      1.0799697     -2.2445404
C       0.8853170      0.5058487     -0.9635348
C       2.7425097     -1.7910022      0.9001387
C       2.8047390     -2.3706458      2.2027913
O      -0.1048837      0.2423417     -0.1143513
H      -0.4027925      1.2970799     -2.5139379
C       3.0227113     -2.6092633     -0.2306178
C       3.1585852     -3.7424394      2.3337564
H       2.9551438     -2.1737569     -1.2282644
H       3.2036859     -4.1779869      3.3338637
C       3.3647100     -3.9305864     -0.0704204
C       3.4356760     -4.5040076      1.2245738
H       3.5753339     -4.5465007     -0.9459198
H       3.7068849     -5.5548343      1.3360859
H      -1.4601444     -0.6516893      3.4283784
C      -3.5788537     -1.7077411      1.2012155
C      -4.6395127     -0.9187737      0.5878148
C      -3.0771742      0.5101306      1.5260852
C      -1.4512115     -1.1437498      2.4438304
C      -4.3377231      0.4177966      0.7284594
N      -2.6212133     -0.7739646      1.6844053
O      -2.5272381      1.5041664      1.9791351
O      -3.4647190     -2.9054768      1.3638932
H      -5.5336358     -1.3720088      0.1679282
H      -0.5317785     -0.8706754      1.9049866
H      -5.0045578      1.2750462      0.6453550
H      -1.4800369     -2.2321923      2.5769112
          85

O      -1.6463327      2.6225524     -0.6391880
C      -2.7886341      2.3121667     -0.9157078
O      -3.7948592      3.2140221     -0.9584885
C      -3.4734794      4.5669795     -0.6584600
C      -4.6582322      5.4239964     -1.0417035
C      -3.3003567      0.9806394     -1.1979525
N      -2.4658191     -0.0764217     -1.2623436
C      -2.9828811     -1.2353729     -1.5783462
C      -2.2856533     -2.5191565     -1.5071027
C      -2.9117786     -3.6481016     -2.0621163
C      -2.3236936     -4.9079359     -1.9829866
C      -1.0980659     -5.0691914     -1.3343398
C      -0.4735770     -3.9579124     -0.7631515
C      -1.0579556     -2.6969992     -0.8437839
H      -3.2519555      4.6527016      0.4167044
H      -2.5664245      4.8562160     -1.2104261
H      -4.4488104      6.4780567     -0.8150526
H      -5.5537390      5.1177266     -0.4834720
H      -4.8679325      5.3311626     -2.1162704
H      -1.0174436      0.2156148     -0.5778695
H      -4.2797521      0.9356964     -1.6822422
H      -3.9922026     -1.2636697     -2.0129235
H      -3.8761543     -3.5290326     -2.5622086
H      -2.8263958     -5.7699313     -2.4255370
H      -0.6373848     -6.0562197     -1.2658345
H       0.4783579     -4.0722154     -0.2395861
H      -0.5691679     -1.8454596     -0.3714767
H       1.9758506      4.8417376      0.9819881
C       1.7362190      3.8205152      1.2610276
H       3.5786257      2.5602976      1.1602574
H      -0.6087613      5.0236251      2.4649854
C       2.5205142      2.7124383      1.3518913
H      -1.5915433      3.6530656      1.8079822
C      -0.7189816      4.2964106      1.6517571
N       0.4572051      3.4364365      1.6088265
H       6.6983440      0.4094982     -1.6208666
H       6.2318773      1.4150141     -3.8620967
C       5.6674935      0.6008489     -1.9239585
C       5.4046753      1.1713635     -3.1940051
N       1.6995665      1.6779696      1.7587245
H      -0.8172457      4.8034412      0.6866957
C       0.4527574      2.1410507      1.8929410
C       4.6362545      0.2858296     -1.0690568
C       4.1064862      1.4173986     -3.5763696
H       1.9142117      0.3670603      4.0612688
H       4.8515175     -0.1544097     -0.0930665
H       3.8890326      1.8598925     -4.5512425
C       2.0904691      0.3033571      1.9001696
C       2.1476128     -0.2566859      3.1976231
C       3.2815944      0.5248232     -1.4396659
C       3.0198376      1.1055036     -2.7163097
H      -0.4436404      1.5665647      2.1374303
C       2.1872492      0.2125963     -0.5795145
C       1.6702549      1.3641257     -3.0915939
C       2.3736750     -0.4146194      0.7562563
C       2.4974374     -1.5749988      3.3410506
H       1.4741329      1.8059976     -4.0710431
H       2.5465335     -2.0278118      4.3327318
C       0.6305207      1.0804558     -2.2471913
C       0.8838766      0.5053082     -0.9663403
C       2.7401043     -1.7915303      0.8992499
C       2.8023306     -2.3705595      2.2022055
O      -0.1056292      0.2407151     -0.1173864
H      -0.4030027      1.2980255     -2.5175290
C       3.0221307     -2.6100937     -0.2308745
C       3.1577622     -3.7418687      2.3341008
H       2.9547518     -2.1751510     -1.2287903
H       3.2028023     -4.1767982      3.3344818
C       3.3656498     -3.9309408     -0.0697978
C       3.4364537     -4.5036933      1.2255081
H       3.5776376     -4.5469995     -0.9448681
H       3.7088739     -5.5541355      1.3377145
H      -1.4444604     -0.6522116      3.4247513
C      -3.5764638     -1.7061155      1.2077397
C      -4.6460836     -0.9150406      0.6115712
C      -3.0729187      0.5108822      1.5360595
C      -1.4414289     -1.1443643      2.4403340
C      -4.3409469      0.4212633      0.7496367
N      -2.6157317     -0.7731772      1.6881372
O      -2.5193913      1.5053193      1.9834235
O      -3.4575323     -2.9049813      1.3592517
H      -5.5409602     -1.3670745      0.1919647
H      -0.5250239     -0.8721140      1.8962328
H      -5.0037198      1.2786855      0.6703068
H      -1.4705316     -2.2327480      2.5735932
          85

O      -1.6416313      2.6257412     -0.6329192
C      -2.7815885      2.3136327     -0.9237758
O      -3.7905872      3.2156821     -0.9635962
C      -3.4723104      4.5670101     -0.6571065
C      -4.6581923      5.4230163     -1.0399385
C      -3.2857423      0.9897797     -1.2304158
N      -2.4664438     -0.0752780     -1.2676681
C      -2.9825366     -1.2365569     -1.5814652
C      -2.2854988     -2.5190557     -1.5066513
C      -2.9113754     -3.6489280     -2.0610977
C      -2.3235125     -4.9086759     -1.9819004
C      -1.0977055     -5.0704583     -1.3336754
C      -0.4730467     -3.9587129     -0.7634631
C      -1.0568462     -2.6976122     -0.8444590
H      -3.2532805      4.6503835      0.4188523
H      -2.5645442      4.8610230     -1.2057676
H      -4.4519321      6.4770287     -0.8102018
H      -5.5540316      5.1130334     -0.4841932
H      -4.8659499      5.3323443     -2.1150621
H      -1.0167483      0.2174383     -0.5787389
H      -4.2791937      0.9383440     -1.6861328
H      -3.9918590     -1.2651545     -2.0163021
H      -3.8756473     -3.5299839     -2.5614404
H      -2.8266255     -5.7704809     -2.4244451
H      -0.6371353     -6.0574916     -1.2650735
H       0.4792769     -4.0726976     -0.2404716
H      -0.5666938     -1.8462091     -0.3733910
H       1.9755576      4.8424024      0.9843024
C       1.7354346      3.8209652      1.2621078
H       3.5776794      2.5604321      1.1620590
H      -0.6085272      5.0246328      2.4647139
C       2.5194117      2.7126351      1.3527172
H      -1.5925486      3.6546174      1.8078643
C      -0.7197270      4.2974785      1.6515771
N       0.4560169      3.4369165      1.6082518
H       6.6982698      0.4094333     -1.6201521
H       6.2322850      1.4150959     -3.8614041
C       5.6674824      0.6007346     -1.9234864
C       5.4049263      1.1713325     -3.1935475
N       1.6978187      1.6779422      1.7576741
H      -0.8184436      4.8041021      0.6863980
C       0.4509592      2.1412699      1.8908681
C       4.6360311      0.2855942     -1.0688982
C       4.1068271      1.4173376     -3.5762654
H       1.9113932      0.3670923      4.0604038
H       4.8510097     -0.1547005     -0.0928717
H       3.8896508      1.8599229     -4.5511570
C       2.0887182      0.3033315      1.8993857
C       2.1453636     -0.2566466      3.1969029
C       3.2814950      0.5246027     -1.4398951
C       3.0199441      1.1053684     -2.7165286
H      -0.4455955      1.5667026      2.1339867
C       2.1869438      0.2123730     -0.5800735
C       1.6704272      1.3642449     -3.0919878
C       2.3727740     -0.4147648      0.7557503
C       2.4955996     -1.5748373      3.3406248
H       1.4745513      1.8063695     -4.0713672
H       2.5444611     -2.0274943      4.3323913
C       0.6304685      1.0807945     -2.2477666
C       0.8837874      0.5053004     -0.9671452
C       2.7393572     -1.7916001      0.8989847
C       2.8013183     -2.3704482      2.2020246
O      -0.1057433      0.2403120     -0.1182613
H      -0.4029735      1.2991821     -2.5179219
C       3.0219049     -2.6102081     -0.2309772
C       3.1573833     -3.7415700      2.3342001
H       2.9545055     -2.1754360     -1.2289636
H       3.2023798     -4.1763551      3.3346463
C       3.3659267     -3.9308862     -0.0696380
C       3.4367598     -4.5033923      1.2257750
H       3.5782851     -4.5470022     -0.9445748
H       3.7096923     -5.5536797      1.3381953
H      -1.4366681     -0.6503124      3.4195835
C      -3.5714947     -1.7068546      1.2118498
C      -4.6540230     -0.9140651      0.6256125
C      -3.0788450      0.5100115      1.5425105
C      -1.4363309     -1.1442784      2.4361729
C      -4.3611851      0.4147989      0.7812951
N      -2.6144324     -0.7751088      1.6881435
O      -2.5222708      1.5033813      1.9865891
O      -3.4548035     -2.9054465      1.3553827
H      -5.5460425     -1.3704699      0.2041626
H      -0.5225318     -0.8721236      1.8880206
H      -5.0129789      1.2780820      0.6709407
H      -1.4636558     -2.2324251      2.5716742
          85

O      -1.6379867      2.6274855     -0.6277804
C      -2.7747506      2.3150683     -0.9331557
O      -3.7846030      3.2182625     -0.9760794
C      -3.4700292      4.5666190     -0.6563869
C      -4.6562928      5.4235297     -1.0366495
C      -3.2747946      0.9971757     -1.2579625
N      -2.4662066     -0.0745183     -1.2753714
C      -2.9808049     -1.2370111     -1.5881812
C      -2.2848375     -2.5192828     -1.5081528
C      -2.9112464     -3.6507057     -2.0597650
C      -2.3237584     -4.9104899     -1.9789885
C      -1.0973767     -5.0720450     -1.3317257
C      -0.4722224     -3.9592573     -0.7639921
C      -1.0553325     -2.6979497     -0.8468977
H      -3.2554290      4.6418132      0.4212389
H      -2.5606645      4.8680520     -1.1986044
H      -4.4530949      6.4763487     -0.7985990
H      -5.5532924      5.1075572     -0.4861685
H      -4.8605945      5.3402119     -2.1131209
H      -1.0170602      0.2183168     -0.5817467
H      -4.2728660      0.9444969     -1.6999095
H      -3.9904853     -1.2665392     -2.0226725
H      -3.8757321     -3.5325203     -2.5599298
H      -2.8276912     -5.7726824     -2.4199513
H      -0.6369158     -6.0590507     -1.2621007
H       0.4806346     -4.0724235     -0.2417193
H      -0.5635683     -1.8461329     -0.3783274
H       1.9754549      4.8433193      0.9874686
C       1.7343683      3.8216580      1.2635637
H       3.5760098      2.5601855      1.1639326
H      -0.6083137      5.0258265      2.4658365
C       2.5176086      2.7127428      1.3534831
H      -1.5939213      3.6571425      1.8083794
C      -0.7206458      4.2993830      1.6521870
N       0.4543863      3.4379278      1.6077261
H       6.6981242      0.4091412     -1.6192321
H       6.2331073      1.4150471     -3.8605713
C       5.6674708      0.6005100     -1.9229765
C       5.4054648      1.1712523     -3.1930796
N       1.6949861      1.6779560      1.7560077
H      -0.8198098      4.8064826      0.6873180
C       0.4482165      2.1418842      1.8882009
C       4.6356461      0.2853070     -1.0688555
C       4.1075390      1.4173988     -3.5762917
H       1.9068824      0.3673081      4.0589695
H       4.8501975     -0.1551142     -0.0927928
H       3.8907894      1.8601552     -4.5511982
C       2.0857988      0.3033178      1.8980740
C       2.1417219     -0.2564682      3.1957281
C       3.2812853      0.5244602     -1.4403906
C       3.0202909      1.1054752     -2.7170255
H      -0.4487593      1.5674852      2.1296507
C       2.1862874      0.2122456     -0.5811397
C       1.6710038      1.3650245     -3.0928898
C       2.3712042     -0.4148418      0.7548061
C       2.4925538     -1.5744577      3.3399519
H       1.4756753      1.8076345     -4.0721539
H       2.5409693     -2.0268886      4.3318447
C       0.6306419      1.0818798     -2.2490964
C       0.8834258      0.5056140     -0.9687797
C       2.7382472     -1.7915125      0.8985498
C       2.7995898     -2.3701142      2.2017339
O      -0.1065770      0.2401581     -0.1206315
H      -0.4026092      1.3011852     -2.5193282
C       3.0219038     -2.6101899     -0.2310768
C       3.1564033     -3.7409958      2.3344072
H       2.9548159     -2.1756597     -1.2291875
H       3.2010143     -4.1755714      3.3349615
C       3.3665385     -3.9306469     -0.0692688
C       3.4369532     -4.5028487      1.2262993
H       3.5796987     -4.5468275     -0.9439607
H       3.7104420     -5.5529521      1.3390829
H      -1.4279773     -0.6495002      3.4128492
C      -3.5700450     -1.7093871      1.2158871
C      -4.6642617     -0.9163967      0.6422661
C      -3.0868329      0.5076413      1.5505074
C      -1.4315988     -1.1436675      2.4295586
C      -4.3793528      0.4087845      0.8087374
N      -2.6154976     -0.7771101      1.6886747
O      -2.5295336      1.5013361      1.9909223
O      -3.4514991     -2.9079234      1.3502892
H      -5.5536456     -1.3755763      0.2180058
H      -0.5219508     -0.8692970      1.8759948
H      -5.0248640      1.2732220      0.6813797
H      -1.4552887     -2.2318497      2.5654389
          85

O      -1.6346066      2.6279246     -0.6199700
C      -2.7682087      2.3160184     -0.9412097
O      -3.7772063      3.2220539     -0.9911053
C      -3.4654985      4.5666659     -0.6573499
C      -4.6524420      5.4252901     -1.0321278
C      -3.2642284      1.0033979     -1.2810706
N      -2.4659106     -0.0738131     -1.2811732
C      -2.9789146     -1.2376432     -1.5938848
C      -2.2835337     -2.5192852     -1.5102120
C      -2.9111204     -3.6523425     -2.0579009
C      -2.3247303     -4.9123479     -1.9742022
C      -1.0977032     -5.0736028     -1.3280532
C      -0.4707857     -3.9593996     -0.7650252
C      -1.0525541     -2.6977547     -0.8510606
H      -3.2536091      4.6324616      0.4211945
H      -2.5553563      4.8753158     -1.1940217
H      -4.4518923      6.4761655     -0.7846987
H      -5.5498276      5.1030074     -0.4863144
H      -4.8547851      5.3509396     -2.1093396
H      -1.0177086      0.2190936     -0.5855555
H      -4.2710783      0.9477278     -1.7064464
H      -3.9887650     -1.2676437     -2.0283953
H      -3.8761179     -3.5349787     -2.5572866
H      -2.8302125     -5.7751968     -2.4121552
H      -0.6381661     -6.0608354     -1.2560113
H       0.4828781     -4.0715893     -0.2439813
H      -0.5584459     -1.8453019     -0.3862740
H       1.9745671      4.8449697      0.9926381
C       1.7322803      3.8228486      1.2659669
H       3.5731636      2.5602171      1.1667417
H      -0.6087605      5.0279635      2.4665507
C       2.5145410      2.7131438      1.3546883
H      -1.5963778      3.6605168      1.8094476
C      -0.7226254      4.3018998      1.6527875
N       0.4515019      3.4393402      1.6072198
H       6.6979280      0.4083036     -1.6177424
H       6.2347042      1.4147888     -3.8591852
C       5.6675325      0.6000074     -1.9221535
C       5.4065357      1.1710953     -3.1923082
N       1.6904861      1.6780581      1.7534862
H      -0.8223585      4.8091245      0.6880795
C       0.4438396      2.1426570      1.8845332
C       4.6350271      0.2848892     -1.0688426
C       4.1089476      1.4177693     -3.5763565
H       1.8991831      0.3676506      4.0564964
H       4.8487310     -0.1558183     -0.0927258
H       3.8930444      1.8608677     -4.5512963
C       2.0811438      0.3034010      1.8958723
C       2.1356105     -0.2561513      3.1936969
C       3.2810181      0.5245147     -1.4413090
C       3.0209902      1.1060390     -2.7179196
H      -0.4537394      1.5684943      2.1238839
C       2.1853505      0.2123018     -0.5830111
C       1.6720349      1.3664991     -3.0944750
C       2.3687061     -0.4147776      0.7531292
C       2.4872874     -1.5738275      3.3387053
H       1.4775757      1.8097885     -4.0736033
H       2.5347911     -2.0259826      4.3307693
C       0.6309661      1.0834798     -2.2514809
C       0.8828818      0.5061697     -0.9715012
C       2.7363238     -1.7912310      0.8976592
C       2.7965169     -2.3694688      2.2010718
O      -0.1074465      0.2398810     -0.1241930
H      -0.4020613      1.3036041     -2.5221021
C       3.0219715     -2.6100262     -0.2313898
C       3.1545331     -3.7399574      2.3345844
H       2.9555882     -2.1758674     -1.2297121
H       3.1983865     -4.1741807      3.3353262
C       3.3676415     -3.9301207     -0.0687807
C       3.4371811     -4.5018553      1.2270418
H       3.5823230     -4.5463794     -0.9430459
H       3.7116173     -5.5516459      1.3404572
H      -1.4171770     -0.6513848      3.4068150
C      -3.5676080     -1.7114983      1.2206499
C      -4.6729630     -0.9179949      0.6586112
C      -3.0929766      0.5052701      1.5594180
C      -1.4255970     -1.1445199      2.4230688
C      -4.3953487      0.4024002      0.8354371
N      -2.6155087     -0.7795290      1.6903996
O      -2.5349821      1.4987736      1.9976622
O      -3.4479000     -2.9098948      1.3460296
H      -5.5611364     -1.3795974      0.2343177
H      -0.5204404     -0.8675967      1.8637683
H      -5.0347253      1.2701961      0.6885017
H      -1.4458188     -2.2328576      2.5580060
          85

O      -1.6319652      2.6275825     -0.6101170
C      -2.7626399      2.3177746     -0.9448973
O      -3.7684132      3.2276076     -1.0077647
C      -3.4582085      4.5686768     -0.6588997
C      -4.6453444      5.4301649     -1.0263482
C      -3.2592813      1.0079501     -1.2906856
N      -2.4654761     -0.0727026     -1.2829383
C      -2.9769167     -1.2368486     -1.5962923
C      -2.2819165     -2.5185581     -1.5106295
C      -2.9123589     -3.6530184     -2.0526279
C      -2.3275317     -4.9135766     -1.9663372
C      -1.0987669     -5.0746026     -1.3234227
C      -0.4684379     -3.9590734     -0.7668105
C      -1.0485234     -2.6968224     -0.8555974
H      -3.2488514      4.6229640      0.4210906
H      -2.5469776      4.8848732     -1.1900595
H      -4.4474354      6.4785323     -0.7642127
H      -5.5437465      5.0985283     -0.4870628
H      -4.8446648      5.3696891     -2.1055246
H      -1.0187319      0.2194987     -0.5899734
H      -4.2660889      0.9536844     -1.7132917
H      -3.9875693     -1.2677095     -2.0291997
H      -3.8788296     -3.5362782     -2.5493332
H      -2.8357782     -5.7771503     -2.3997191
H      -0.6405034     -6.0622631     -1.2491823
H       0.4868930     -4.0705358     -0.2486275
H      -0.5511036     -1.8436819     -0.3957279
H       1.9731208      4.8478520      0.9993900
C       1.7293795      3.8251290      1.2690938
H       3.5688427      2.5605352      1.1683467
H      -0.6084376      5.0325489      2.4682742
C       2.5101382      2.7141525      1.3552193
H      -1.5992387      3.6659745      1.8144210
C      -0.7251096      4.3061705      1.6551946
N       0.4477701      3.4421392      1.6076476
H       6.6982802      0.4071922     -1.6159088
H       6.2376746      1.4148325     -3.8573666
C       5.6682661      0.5995014     -1.9212307
C       5.4087383      1.1712500     -3.1914038
N       1.6843148      1.6788309      1.7496850
H      -0.8266337      4.8127921      0.6903748
C       0.4381044      2.1445555      1.8806029
C       4.6347830      0.2845514     -1.0690879
C       4.1116505      1.4187482     -3.5766467
H       1.8852939      0.3680765      4.0524550
H       4.8472222     -0.1566455     -0.0929186
H       3.8969956      1.8623987     -4.5516124
C       2.0742721      0.3040343      1.8924546
C       2.1247871     -0.2555986      3.1903958
C       3.2812846      0.5249734     -1.4428617
C       3.0226433      1.1071996     -2.7194524
H      -0.4602775      1.5708631      2.1179951
C       2.1847178      0.2128912     -0.5858849
C       1.6741273      1.3686224     -3.0970666
C       2.3655310     -0.4140865      0.7505880
C       2.4767560     -1.5730532      3.3365704
H       1.4808416      1.8126670     -4.0760874
H       2.5214329     -2.0251543      4.3287928
C       0.6320473      1.0855744     -2.2552382
C       0.8826639      0.5072104     -0.9754943
C       2.7333805     -1.7903647      0.8962943
C       2.7903225     -2.3684196      2.1999464
O      -0.1078383      0.2399974     -0.1290810
H      -0.4006780      1.3062164     -2.5268287
C       3.0229015     -2.6091337     -0.2318114
C       3.1498220     -3.7383899      2.3347464
H       2.9586827     -2.1752904     -1.2304153
H       3.1914193     -4.1723448      3.3357033
C       3.3698838     -3.9287357     -0.0679654
C       3.4367932     -4.5000757      1.2281765
H       3.5877238     -4.5449072     -0.9415130
H       3.7125167     -5.5494219      1.3425763
H      -1.4020904     -0.6558655      3.4023629
C      -3.5643324     -1.7146949      1.2267803
C      -4.6768471     -0.9211121      0.6752909
C      -3.0944296      0.5016344      1.5707743
C      -1.4166400     -1.1471342      2.4177901
C      -4.4024219      0.3982305      0.8569652
N      -2.6125900     -0.7824650      1.6945161
O      -2.5373070      1.4952600      2.0088047
O      -3.4421425     -2.9131855      1.3450603
H      -5.5644248     -1.3837258      0.2504662
H      -0.5162897     -0.8676173      1.8523636
H      -5.0407222      1.2647075      0.7103191
H      -1.4340807     -2.2357852      2.5506952
          85

O      -1.6307608      2.6277116     -0.6065465
C      -2.7604966      2.3184240     -0.9456705
O      -3.7654139      3.2294125     -1.0120646
C      -3.4554732      4.5694961     -0.6597804
C      -4.6430621      5.4316087     -1.0243774
C      -3.2570338      1.0097290     -1.2940866
N      -2.4652936     -0.0722910     -1.2831346
C      -2.9763977     -1.2366069     -1.5964736
C      -2.2815032     -2.5182764     -1.5103489
C      -2.9128389     -3.6531362     -2.0506599
C      -2.3284523     -4.9138476     -1.9637791
C      -1.0990761     -5.0748614     -1.3220220
C      -0.4676437     -3.9589605     -0.7673828
C      -1.0472394     -2.6965333     -0.8568140
H      -3.2457578      4.6211012      0.4202689
H      -2.5445099      4.8875879     -1.1903549
H      -4.4453795      6.4793961     -0.7596981
H      -5.5409921      5.0982737     -0.4853543
H      -4.8431022      5.3738235     -2.1035871
H      -1.0189565      0.2196213     -0.5912927
H      -4.2646589      0.9555929     -1.7143631
H      -3.9873515     -1.2676450     -2.0287689
H      -3.8798132     -3.5365529     -2.5464314
H      -2.8375801     -5.7775984     -2.3957995
H      -0.6411813     -6.0626491     -1.2472540
H       0.4882791     -4.0702216     -0.2502308
H      -0.5487233     -1.8432259     -0.3984715
H       1.9727368      4.8489915      1.0016175
C       1.7284527      3.8259099      1.2701529
H       3.5675370      2.5606274      1.1687730
H      -0.6082071      5.0339827      2.4692817
C       2.5086845      2.7145128      1.3553610
H      -1.6001551      3.6679844      1.8160235
C      -0.7258177      4.3077412      1.6562100
N       0.4465776      3.4431340      1.6078553
H       6.6984654      0.4068670     -1.6153035
H       6.2387091      1.4148698     -3.8567705
C       5.6685745      0.5993598     -1.9209269
C       5.4095216      1.1713151     -3.1911099
N       1.6822800      1.6791218      1.7484021
H      -0.8277819      4.8144613      0.6914916
C       0.4362331      2.1452469      1.8793387
C       4.6347716      0.2844596     -1.0691710
C       4.1125963      1.4190619     -3.5767567
H       1.8804588      0.3682117      4.0510816
H       4.8467894     -0.1568889     -0.0929793
H       3.8983549      1.8628826     -4.5517366
C       2.0719704      0.3042705      1.8913064
C       2.1210343     -0.2554134      3.1892802
C       3.2814425      0.5251299     -1.4433844
C       3.0232416      1.1075659     -2.7199747
H      -0.4624137      1.5717244      2.1161251
C       2.1845919      0.2130986     -0.5868371
C       1.6748598      1.3692772     -3.0979298
C       2.3645276     -0.4138338      0.7497504
C       2.4730422     -1.5728092      3.3358534
H       1.4819466      1.8135529     -4.0769203
H       2.5166727     -2.0249091      4.3281250
C       0.6324521      1.0862266     -2.2564701
C       0.8826686      0.5075449     -0.9767973
C       2.7324036     -1.7900649      0.8958562
C       2.7881393     -2.3680761      2.1995842
O      -0.1078385      0.2400268     -0.1306230
H      -0.4001764      1.3070489     -2.5283669
C       3.0232902     -2.6088175     -0.2319222
C       3.1481097     -3.7378790      2.3348254
H       2.9598741     -2.1750679     -1.2306192
H       3.1888668     -4.1717580      3.3358512
C       3.3706928     -3.9282582     -0.0676510
C       3.4366180     -4.4994805      1.2285965
H       3.5896537     -4.5443917     -0.9409477
H       3.7127606     -5.5486801      1.3433363
H      -1.3965234     -0.6572187      3.4010868
C      -3.5627372     -1.7154657      1.2292515
C      -4.6779477     -0.9217113      0.6814696
C      -3.0945336      0.5006531      1.5749702
C      -1.4131830     -1.1479667      2.4162895
C      -4.4048784      0.3969265      0.8653892
N      -2.6111369     -0.7833153      1.6961393
O      -2.5374247      1.4942112      2.0128030
O      -3.4399827     -2.9139801      1.3450401
H      -5.5653536     -1.3847106      0.2565876
H      -0.5144144     -0.8677602      1.8487705
H      -5.0423362      1.2634402      0.7172938
H      -1.4298302     -2.2367015      2.5486383
