          85

O      -1.9399003      1.9058324     -1.7889854
C      -3.1617477      1.7090472     -1.7659721
O      -4.0223785      2.7380022     -1.9329438
C      -3.4689220      4.0184463     -2.2202702
C      -3.1629631      4.1629845     -3.6989405
C      -3.8152854      0.4667279     -1.5364542
N      -3.0748822     -0.6200406     -1.2925520
C      -3.6147709     -1.7662124     -1.0115948
C      -2.7907718     -2.9192645     -0.6510093
C      -3.3897558     -4.1344564     -0.2823958
C      -2.6127036     -5.2350087      0.0761082
C      -1.2202086     -5.1409643      0.0773301
C      -0.6137373     -3.9308778     -0.2776814
C      -1.3854616     -2.8308185     -0.6345855
H      -4.2328168      4.7405001     -1.9042562
H      -2.5651548      4.1660254     -1.6139281
H      -2.7979913      5.1769109     -3.9154784
H      -4.0676461      3.9827584     -4.2965095
H      -2.3902621      3.4424016     -4.0004995
H      -0.8957138      0.8332888     -1.2261568
H      -4.9105543      0.4311890     -1.6263597
H      -4.7068586     -1.9160761     -1.0627036
H      -4.4799500     -4.2092546     -0.2726823
H      -3.0975296     -6.1718273      0.3584641
H      -0.6094568     -6.0020957      0.3552853
H       0.4740620     -3.8463607     -0.2789516
H      -0.9162786     -1.8810207     -0.9015426
H       2.1598498      4.0938820      3.6320160
C       1.8963404      3.1937710      3.0856714
H       3.4307850      1.6144841      3.4602656
H      -1.0680406      3.7513201      1.5604945
C       2.5165025      1.9838259      3.0057020
H       0.2475134      4.9815375      1.4731206
C      -0.2055300      4.1865467      2.0766141
N       0.7704942      3.1212833      2.2923602
H       6.8177433      1.2155380     -0.2347124
H       6.8046712      3.0206775     -1.9637636
C       5.8772418      1.5048562     -0.7068283
C       5.8717257      2.5277231     -1.6869287
N       1.7530603      1.2021235      2.1600939
H      -0.5159099      4.5854005      3.0485288
C       0.7032490      1.9151382      1.7397558
C       4.7105715      0.8708345     -0.3453246
C       4.6882221      2.8921348     -2.2851085
H       1.9226373     -0.8072795      3.8531541
H       4.7318961      0.0823317      0.4094005
H       4.6672040      3.6789295     -3.0425056
C       2.0325846     -0.1541103      1.7855734
C       2.1039142     -1.1166480      2.8228315
C       3.4692996      1.2264160     -0.9478268
C       3.4675240      2.2566543     -1.9340265
H      -0.1029720      1.5652186      1.0895037
C       2.2372365      0.5949444     -0.5917704
C       2.2321367      2.6249305     -2.5370790
C       2.2294770     -0.4656944      0.4559821
C       2.3926414     -2.4188315      2.5113036
H       2.2305362      3.4161507     -3.2899492
H       2.4567535     -3.1725097      3.2976823
C       1.0593281      2.0117739     -2.1879893
C       1.0517390      0.9760646     -1.2046781
C       2.5108773     -1.8312774      0.1243453
C       2.6100007     -2.8069740      1.1604809
O      -0.0839908      0.3755927     -0.8375772
H       0.1083858      2.2996878     -2.6354304
C       2.7218585     -2.2375736     -1.2226833
C       2.9315425     -4.1501923      0.8216685
H       2.6354989     -1.4948233     -2.0170651
H       3.0060711     -4.8884483      1.6223557
C       3.0298600     -3.5444710     -1.5193665
C       3.1416332     -4.5104816     -0.4878402
H       3.1874576     -3.8432961     -2.5565623
H       3.3882000     -5.5429436     -0.7394946
H      -1.3617703     -1.8450609      2.3844761
C      -3.7793489     -1.1874286      1.8476146
C      -4.9140919     -0.3772687      1.3481082
C      -2.9783688      0.8743177      1.2624183
C      -1.3063264     -0.7911489      2.0852657
C      -4.4490399      0.8373673      0.9910838
N      -2.6405506     -0.3711025      1.7367255
O      -2.2050209      1.8093242      1.1407767
O      -3.7740966     -2.2982990      2.3254835
H      -5.9328103     -0.7573037      1.3220552
H      -0.9117479     -0.1951731      2.9245080
H      -4.9919890      1.7178913      0.6481192
H      -0.6432994     -0.7005542      1.2129693
          85

O      -1.9407615      1.9080435     -1.7921279
C      -3.1621177      1.7108452     -1.7651458
O      -4.0246624      2.7386278     -1.9290616
C      -3.4736201      4.0186684     -2.2222434
C      -3.1692341      4.1573561     -3.7017395
C      -3.8142647      0.4679679     -1.5332537
N      -3.0727717     -0.6181741     -1.2899190
C      -3.6129930     -1.7641483     -1.0086083
C      -2.7894651     -2.9178317     -0.6493804
C      -3.3892133     -4.1330236     -0.2821660
C      -2.6128167     -5.2346490      0.0743973
C      -1.2202606     -5.1415957      0.0750608
C      -0.6130394     -3.9315074     -0.2786541
C      -1.3840925     -2.8303601     -0.6336461
H      -4.2383954      4.7406932     -1.9084552
H      -2.5694995      4.1702242     -1.6174137
H      -2.8064296      5.1709858     -3.9230263
H      -4.0741173      3.9727845     -4.2976106
H      -2.3954121      3.4370215     -4.0008073
H      -0.8949553      0.8302888     -1.2249609
H      -4.9088131      0.4311169     -1.6232195
H      -4.7050952     -1.9136218     -1.0598932
H      -4.4794537     -4.2070104     -0.2721595
H      -3.0981856     -6.1715082      0.3556614
H      -0.6100119     -6.0035494      0.3515596
H       0.4748233     -3.8478491     -0.2804212
H      -0.9143113     -1.8806109     -0.8996766
H       2.1596526      4.0929256      3.6333548
C       1.8964660      3.1925990      3.0868879
H       3.4321112      1.6141734      3.4608646
H      -1.0682345      3.7490953      1.5617961
C       2.5173466      1.9830583      3.0065497
H       0.2464655      4.9803192      1.4765844
C      -0.2063773      4.1843492      2.0789359
N       0.7703642      3.1195580      2.2940042
H       6.8179819      1.2169603     -0.2359474
H       6.8032707      3.0221576     -1.9649062
C       5.8771098      1.5059252     -0.7075375
C       5.8706638      2.5288350     -1.6875925
N       1.7540652      1.2009910      2.1611430
H      -0.5175107      4.5818960      3.0511520
C       0.7037627      1.9134715      1.7411735
C       4.7108853      0.8714291     -0.3454206
C       4.6867087      2.8928274     -2.2851094
H       1.9232960     -0.8091087      3.8536800
H       4.7329019      0.0829001      0.4092590
H       4.6649630      3.6796480     -3.0424549
C       2.0336979     -0.1551677      1.7863656
C       2.1046145     -1.1181252      2.8232590
C       3.4691826      1.2264913     -0.9473256
C       3.4664761      2.2567729     -1.9334686
H      -0.1024273      1.5633177      1.0909969
C       2.2375647      0.5943538     -0.5908814
C       2.2307156      2.6244057     -2.5360921
C       2.2304253     -0.4664397      0.4566813
C       2.3929379     -2.4202960      2.5112444
H       2.2284182      3.4156723     -3.2889048
H       2.4566823     -3.1742919      3.2973477
C       1.0583792      2.0105330     -2.1867405
C       1.0517746      0.9748971     -1.2034756
C       2.5115776     -1.8319310      0.1245312
C       2.6104214     -2.8080159      1.1603122
O      -0.0836776      0.3737906     -0.8359382
H       0.1071613      2.2979816     -2.6338312
C       2.7225492     -2.2377305     -1.2226516
C       2.9318373     -4.1511435      0.8210010
H       2.6363242     -1.4946737     -2.0167584
H       3.0061898     -4.8897321      1.6213964
C       3.0304670     -3.5445342     -1.5198074
C       3.1420732     -4.5109336     -0.4886248
H       3.1881358     -3.8429828     -2.5570999
H       3.3885934     -5.5433173     -0.7406442
H      -1.3641475     -1.8415967      2.3951081
C      -3.7787815     -1.1836416      1.8473904
C      -4.9116295     -0.3732151      1.3452164
C      -2.9741052      0.8758832      1.2595409
C      -1.3060105     -0.7893566      2.0908575
C      -4.4447449      0.8408135      0.9871343
N      -2.6385349     -0.3687950      1.7369137
O      -2.1989632      1.8092325      1.1356565
O      -3.7752699     -2.2937333      2.3273492
H      -5.9306881     -0.7521840      1.3180593
H      -0.9126063     -0.1899969      2.9282170
H      -4.9858419      1.7215688      0.6438213
H      -0.6403901     -0.7041610      1.2200307
          85

O      -1.9433953      1.9110021     -1.7986835
C      -3.1634868      1.7147509     -1.7622544
O      -4.0291275      2.7398815     -1.9184409
C      -3.4829509      4.0194492     -2.2233779
C      -3.1843884      4.1460473     -3.7050445
C      -3.8162252      0.4700883     -1.5218540
N      -3.0693091     -0.6157927     -1.2861364
C      -3.6102399     -1.7607822     -1.0040328
C      -2.7876908     -2.9158527     -0.6459620
C      -3.3889184     -4.1309032     -0.2815345
C      -2.6134955     -5.2346894      0.0705091
C      -1.2208444     -5.1432935      0.0694502
C      -0.6123218     -3.9327500     -0.2803289
C      -1.3824663     -2.8293970     -0.6305169
H      -4.2488331      4.7414159     -1.9123525
H      -2.5771414      4.1779923     -1.6227533
H      -2.8252023      5.1586441     -3.9365495
H      -4.0910595      3.9537750     -4.2957698
H      -2.4096491      3.4252405     -4.0005547
H      -0.8931283      0.8221696     -1.2235776
H      -4.9039028      0.4288234     -1.6287347
H      -4.7023062     -1.9097851     -1.0553534
H      -4.4792264     -4.2034383     -0.2708757
H      -3.0996020     -6.1718893      0.3492548
H      -0.6113871     -6.0070712      0.3419896
H       0.4756350     -3.8505010     -0.2828196
H      -0.9121227     -1.8791314     -0.8935202
H       2.1613389      4.0913364      3.6349780
C       1.8983559      3.1907648      3.0888143
H       3.4359793      1.6138088      3.4609790
H      -1.0674424      3.7451660      1.5646251
C       2.5203393      1.9818081      3.0077004
H       0.2455541      4.9785425      1.4840271
C      -0.2069112      4.1804926      2.0839037
N       0.7712759      3.1166188      2.2974363
H       6.8183598      1.2204448     -0.2383027
H       6.8000879      3.0256658     -1.9671586
C       5.8766997      1.5085147     -0.7088642
C       5.8682377      2.5314542     -1.6888909
N       1.7566652      1.1989578      2.1633766
H      -0.5196580      4.5752028      3.0567710
C       0.7052280      1.9104889      1.7445587
C       4.7114778      0.8728797     -0.3454740
C       4.6833459      2.8943165     -2.2851641
H       1.9253831     -0.8123459      3.8551832
H       4.7350363      0.0843460      0.4091586
H       4.6599981      3.6810891     -3.0425008
C       2.0363196     -0.1571550      1.7882820
C       2.1065650     -1.1208062      2.8245727
C       3.4688417      1.2266900     -0.9461740
C       3.4641613      2.2569243     -1.9323385
H      -0.1017624      1.5600063      1.0954161
C       2.2381534      0.5930885     -0.5888832
C       2.2276741      2.6230565     -2.5342104
C       2.2324883     -0.4679491      0.4584104
C       2.3938406     -2.4230265      2.5116627
H       2.2239004      3.4143030     -3.2870231
H       2.4568407     -3.1775907      3.2972788
C       1.0563629      2.0076077     -2.1843260
C       1.0518484      0.9722254     -1.2011159
C       2.5131545     -1.8332769      0.1253520
C       2.6113336     -2.8100629      1.1605187
O      -0.0830398      0.3691556     -0.8332317
H       0.1047233      2.2939481     -2.6310670
C       2.7241336     -2.2382111     -1.2220986
C       2.9321856     -4.1531064      0.8202916
H       2.6385259     -1.4945849     -2.0157444
H       3.0060716     -4.8923095      1.6201600
C       3.0315568     -3.5449244     -1.5201145
C       3.1425620     -4.5120581     -0.4895520
H       3.1893295     -3.8427106     -2.5575804
H       3.3887266     -5.5443665     -0.7422249
H      -1.3706743     -1.8327340      2.4171979
C      -3.7808371     -1.1770707      1.8435534
C      -4.9071040     -0.3699773      1.3302968
C      -2.9673477      0.8779146      1.2484990
C      -1.3076822     -0.7834565      2.1029336
C      -4.4350639      0.8429483      0.9611545
N      -2.6366746     -0.3632079      1.7354093
O      -2.1898713      1.8096395      1.1227569
O      -3.7779331     -2.2849736      2.3309372
H      -5.9259908     -0.7486874      1.2967950
H      -0.9184641     -0.1771003      2.9374323
H      -4.9732492      1.7255189      0.6289549
H      -0.6351861     -0.7083239      1.2359531
          85

O      -1.9482836      1.9120255     -1.8052396
C      -3.1671025      1.7179606     -1.7571752
O      -4.0343292      2.7420230     -1.9079191
C      -3.4901566      4.0202777     -2.2237259
C      -3.1944709      4.1363338     -3.7068410
C      -3.8164398      0.4728791     -1.5061964
N      -3.0673087     -0.6121453     -1.2791771
C      -3.6086369     -1.7577306     -0.9985004
C      -2.7863874     -2.9138529     -0.6436159
C      -3.3887843     -4.1288047     -0.2811731
C      -2.6143154     -5.2343480      0.0673954
C      -1.2216022     -5.1444038      0.0649930
C      -0.6119237     -3.9337413     -0.2823350
C      -1.3811089     -2.8286092     -0.6290727
H      -4.2564166      4.7432447     -1.9163331
H      -2.5833923      4.1840918     -1.6259475
H      -2.8373139      5.1478176     -3.9461324
H      -4.1019628      3.9385786     -4.2944369
H      -2.4191619      3.4147467     -3.9985388
H      -0.8912731      0.8133421     -1.2209658
H      -4.9066137      0.4282196     -1.6138628
H      -4.7002784     -1.9068317     -1.0527864
H      -4.4791605     -4.1999398     -0.2696443
H      -3.1011433     -6.1716511      0.3444896
H      -0.6128644     -6.0095194      0.3348646
H       0.4761215     -3.8527861     -0.2855646
H      -0.9098448     -1.8783272     -0.8901951
H       2.1626048      4.0905979      3.6354777
C       1.8996352      3.1897392      3.0897810
H       3.4388567      1.6139984      3.4604723
H      -1.0675536      3.7418523      1.5672674
C       2.5224298      1.9812227      3.0081665
H       0.2439728      4.9768709      1.4884641
C      -0.2077324      4.1776340      2.0873268
N       0.7716798      3.1146165      2.2997498
H       6.8188904      1.2228476     -0.2403204
H       6.7977803      3.0279981     -1.9691857
C       5.8765847      1.5103028     -0.7099575
C       5.8664949      2.5332342     -1.6900175
N       1.7583273      1.1976430      2.1648915
H      -0.5210536      4.5708968      3.0606000
C       0.7059015      1.9083350      1.7471686
C       4.7121230      0.8739724     -0.3454397
C       4.6808471      2.8954409     -2.2851596
H       1.9263842     -0.8146082      3.8561861
H       4.7367750      0.0854443      0.4091651
H       4.6563448      3.6822151     -3.0424532
C       2.0380772     -0.1584444      1.7896513
C       2.1076566     -1.1226329      2.8254636
C       3.4688007      1.2268785     -0.9452331
C       3.4623910      2.2571003     -1.9313754
H      -0.1020109      1.5574649      1.0992689
C       2.2390189      0.5919839     -0.5873953
C       2.2251538      2.6218008     -2.5325376
C       2.2341948     -0.4690231      0.4597519
C       2.3942589     -2.4248794      2.5119297
H       2.2199891      3.4131740     -3.2851963
H       2.4566342     -3.1798444      3.2972086
C       1.0547113      2.0046641     -2.1824400
C       1.0522346      0.9694480     -1.1993530
C       2.5142460     -1.8342088      0.1259554
C       2.6118675     -2.8114756      1.1606580
O      -0.0815011      0.3640643     -0.8303923
H       0.1025751      2.2899449     -2.6287448
C       2.7250784     -2.2384333     -1.2217367
C       2.9323549     -4.1544331      0.8197185
H       2.6396437     -1.4943867     -2.0149958
H       3.0058913     -4.8941317      1.6191601
C       3.0322776     -3.5450284     -1.5204061
C       3.1429394     -4.5126900     -0.4902904
H       3.1901284     -3.8423293     -2.5579990
H       3.3889435     -5.5449161     -0.7434581
H      -1.3784626     -1.8245146      2.4386289
C      -3.7814837     -1.1726477      1.8375292
C      -4.9015404     -0.3703956      1.3088522
C      -2.9612143      0.8785060      1.2359512
C      -1.3105337     -0.7785660      2.1148431
C      -4.4258767      0.8402280      0.9346854
N      -2.6354812     -0.3592756      1.7334261
O      -2.1817598      1.8095083      1.1109855
O      -3.7810098     -2.2764643      2.3350060
H      -5.9210955     -0.7468411      1.2734477
H      -0.9258504     -0.1653225      2.9463431
H      -4.9635531      1.7243968      0.5988757
H      -0.6310542     -0.7134223      1.2526060
          85

O      -1.9535920      1.9121847     -1.8112585
C      -3.1708823      1.7220940     -1.7502143
O      -4.0387800      2.7442110     -1.8995785
C      -3.4957613      4.0213443     -2.2245167
C      -3.2008333      4.1281116     -3.7084171
C      -3.8200178      0.4770921     -1.4809769
N      -3.0652189     -0.6083478     -1.2695496
C      -3.6069078     -1.7543636     -0.9924889
C      -2.7849504     -2.9123403     -0.6417900
C      -3.3887304     -4.1270016     -0.2816792
C      -2.6151738     -5.2339441      0.0645613
C      -1.2224486     -5.1448683      0.0618441
C      -0.6115487     -3.9343419     -0.2837059
C      -1.3797951     -2.8277774     -0.6281146
H      -4.2626140      4.7452100     -1.9210685
H      -2.5888609      4.1893120     -1.6280532
H      -2.8448320      5.1385618     -3.9536317
H      -4.1084431      3.9261998     -4.2944056
H      -2.4248959      3.4057127     -3.9961444
H      -0.8892671      0.8028894     -1.2200369
H      -4.9069084      0.4271499     -1.6053958
H      -4.6982012     -1.9034925     -1.0487079
H      -4.4791658     -4.1968037     -0.2697207
H      -3.1025847     -6.1713322      0.3402369
H      -0.6143805     -6.0109408      0.3302019
H       0.4765672     -3.8545322     -0.2872733
H      -0.9073496     -1.8777949     -0.8883194
H       2.1629939      4.0901433      3.6357237
C       1.9000995      3.1890381      3.0903969
H       3.4406731      1.6143541      3.4599601
H      -1.0684661      3.7390530      1.5698268
C       2.5236140      1.9809134      3.0084010
H       0.2420341      4.9752526      1.4911561
C      -0.2088939      4.1754188      2.0898229
N       0.7714585      3.1130636      2.3014230
H       6.8194099      1.2242369     -0.2419458
H       6.7963474      3.0292454     -1.9709209
C       5.8766258      1.5113949     -0.7108032
C       5.8654088      2.5342793     -1.6909546
N       1.7592264      1.1967078      2.1659381
H      -0.5221169      4.5680592      3.0633887
C       0.7059545      1.9066371      1.7490811
C       4.7126508      0.8748060     -0.3453153
C       4.6792120      2.8962451     -2.2851336
H       1.9264932     -0.8163580      3.8567342
H       4.7380033      0.0862827      0.4092700
H       4.6539596      3.6830420     -3.0423834
C       2.0391639     -0.1593254      1.7905446
C       2.1080646     -1.1239843      2.8259465
C       3.4688289      1.2272295     -0.9443895
C       3.4611734      2.2574679     -1.9304990
H      -0.1029911      1.5553528      1.1025525
C       2.2397962      0.5912644     -0.5863611
C       2.2233132      2.6212869     -2.5308812
C       2.2354701     -0.4697063      0.4606475
C       2.3942935     -2.4262085      2.5119185
H       2.2170196      3.4130180     -3.2831438
H       2.4561072     -3.1815203      3.2969099
C       1.0535254      2.0026214     -2.1808678
C       1.0526797      0.9669315     -1.1985008
C       2.5150570     -1.8347501      0.1262387
C       2.6122103     -2.8123921      1.1605585
O      -0.0795896      0.3587534     -0.8289712
H       0.1011091      2.2873522     -2.6268764
C       2.7257514     -2.2383746     -1.2216552
C       2.9324841     -4.1552676      0.8190597
H       2.6401203     -1.4939597     -2.0145001
H       3.0057768     -4.8953564      1.6181634
C       3.0327743     -3.5448686     -1.5208429
C       3.1432033     -4.5129611     -0.4910845
H       3.1907269     -3.8418175     -2.5585229
H       3.3890999     -5.5451184     -0.7446510
H      -1.3860228     -1.8189877      2.4556415
C      -3.7838484     -1.1690714      1.8328070
C      -4.8959990     -0.3722639      1.2904862
C      -2.9545966      0.8782003      1.2252917
C      -1.3130222     -0.7754314      2.1251359
C      -4.4148533      0.8366473      0.9042597
N      -2.6343121     -0.3555919      1.7326868
O      -2.1736546      1.8091345      1.1018762
O      -3.7832918     -2.2697865      2.3394218
H      -5.9161004     -0.7466282      1.2520318
H      -0.9311809     -0.1578247      2.9548083
H      -4.9524463      1.7248251      0.5822876
H      -0.6276631     -0.7180818      1.2667947
          85

O      -1.9596990      1.9106558     -1.8167190
C      -3.1753844      1.7258307     -1.7421709
O      -4.0429004      2.7460828     -1.8932848
C      -3.4998135      4.0221939     -2.2256103
C      -3.2046337      4.1218710     -3.7098927
C      -3.8239965      0.4818860     -1.4509791
N      -3.0634677     -0.6044223     -1.2589773
C      -3.6053500     -1.7512533     -0.9873763
C      -2.7835486     -2.9112384     -0.6414053
C      -3.3886741     -4.1253869     -0.2829969
C      -2.6159960     -5.2332480      0.0623774
C      -1.2232838     -5.1448301      0.0598645
C      -0.6111316     -3.9347249     -0.2848064
C      -1.3785968     -2.8272084     -0.6280037
H      -4.2669372      4.7470136     -1.9255461
H      -2.5930581      4.1927983     -1.6296757
H      -2.8492540      5.1315830     -3.9589358
H      -4.1120364      3.9172898     -4.2952336
H      -2.4281748      3.3989128     -3.9944797
H      -0.8877760      0.7933075     -1.2191380
H      -4.9087727      0.4262737     -1.5929717
H      -4.6962351     -1.9005120     -1.0456415
H      -4.4791561     -4.1939357     -0.2708010
H      -3.1039512     -6.1704835      0.3374801
H      -0.6159136     -6.0114834      0.3279406
H       0.4770339     -3.8558849     -0.2880809
H      -0.9055922     -1.8770695     -0.8864392
H       2.1631005      4.0898892      3.6357720
C       1.9002140      3.1885819      3.0907753
H       3.4418115      1.6147006      3.4594680
H      -1.0695104      3.7368654      1.5719428
C       2.5242556      1.9807489      3.0085100
H       0.2402737      4.9739067      1.4927574
C      -0.2100117      4.1738162      2.0915743
N       0.7710276      3.1119538      2.3026438
H       6.8198165      1.2250175     -0.2431003
H       6.7954308      3.0298920     -1.9721658
C       5.8767010      1.5120157     -0.7113801
C       5.8647041      2.5348577     -1.6916182
N       1.7596136      1.1960635      2.1666843
H      -0.5229285      4.5662805      3.0653127
C       0.7056395      1.9053787      1.7506026
C       4.7130442      0.8753442     -0.3451932
C       4.6781688      2.8967596     -2.2851413
H       1.9261840     -0.8176265      3.8569961
H       4.7387961      0.0868204      0.4093720
H       4.6524939      3.6835402     -3.0423881
C       2.0397314     -0.1598877      1.7911228
C       2.1081090     -1.1249222      2.8261760
C       3.4689355      1.2275772     -0.9437670
C       3.4603439      2.2577902     -1.9298721
H      -0.1045111      1.5537478      1.1056442
C       2.2404586      0.5908760     -0.5856022
C       2.2219963      2.6210709     -2.5295723
C       2.2363565     -0.4701111      0.4612538
C       2.3941831     -2.4270959      2.5117795
H       2.2148567      3.4131160     -3.2814860
H       2.4555744     -3.1826727      3.2965471
C       1.0526315      2.0013014     -2.1795920
C       1.0532207      0.9651932     -1.1979513
C       2.5156149     -1.8350286      0.1263315
C       2.6124139     -2.8129503      1.1603682
O      -0.0776804      0.3536569     -0.8284913
H       0.1000166      2.2855909     -2.6254405
C       2.7262310     -2.2382449     -1.2217094
C       2.9326126     -4.1557438      0.8184708
H       2.6407754     -1.4936001     -2.0143586
H       3.0057810     -4.8960926      1.6173443
C       3.0330625     -3.5446874     -1.5212845
C       3.1433967     -4.5130610     -0.4917707
H       3.1909958     -3.8413689     -2.5590440
H       3.3892467     -5.5451626     -0.7456089
H      -1.3935422     -1.8154296      2.4685614
C      -3.7866775     -1.1662211      1.8283286
C      -4.8904738     -0.3751884      1.2724733
C      -2.9480782      0.8774230      1.2156052
C      -1.3156451     -0.7736249      2.1335911
C      -4.4032996      0.8312455      0.8729721
N      -2.6335154     -0.3523144      1.7325215
O      -2.1660702      1.8089534      1.0948826
O      -3.7853342     -2.2639918      2.3437047
H      -5.9115477     -0.7463506      1.2325029
H      -0.9354563     -0.1535767      2.9622790
H      -4.9419390      1.7246682      0.5655228
H      -0.6254241     -0.7223287      1.2786341
          85

O      -1.9660366      1.9081042     -1.8215703
C      -3.1799780      1.7294500     -1.7336943
O      -4.0464937      2.7475552     -1.8888329
C      -3.5028323      4.0228682     -2.2271851
C      -3.2068416      4.1170907     -3.7115691
C      -3.8290787      0.4870457     -1.4175445
N      -3.0615644     -0.6007713     -1.2483813
C      -3.6035370     -1.7482808     -0.9833703
C      -2.7819802     -2.9105667     -0.6420077
C      -3.3885667     -4.1239368     -0.2848728
C      -2.6167515     -5.2324100      0.0606795
C      -1.2240685     -5.1444498      0.0587764
C      -0.6105996     -3.9349831     -0.2856124
C      -1.3773376     -2.8268355     -0.6285207
H      -4.2701630      4.7484748     -1.9299814
H      -2.5964271      4.1951539     -1.6312127
H      -2.8520645      5.1264012     -3.9629979
H      -4.1137976      3.9105475     -4.2968733
H      -2.4296902      3.3940059     -3.9936691
H      -0.8865864      0.7841681     -1.2186499
H      -4.9100676      0.4251390     -1.5832992
H      -4.6940749     -1.8976317     -1.0429479
H      -4.4790895     -4.1912524     -0.2726107
H      -3.1052029     -6.1693528      0.3357415
H      -0.6174057     -6.0114425      0.3273967
H       0.4776034     -3.8570155     -0.2882188
H      -0.9038815     -1.8765343     -0.8853693
H       2.1627701      4.0896339      3.6358937
C       1.8999457      3.1881833      3.0911045
H       3.4423888      1.6149831      3.4591309
H      -1.0707161      3.7350172      1.5737685
C       2.5244564      1.9806159      3.0086096
H       0.2385665      4.9727299      1.4937815
C      -0.2111815      4.1725285      2.0928792
N       0.7703862      3.1110451      2.3035547
H       6.8201185      1.2254068     -0.2439184
H       6.7948414      3.0302431     -1.9729763
C       5.8767746      1.5123341     -0.7117726
C       5.8642445      2.5351795     -1.6920526
N       1.7596877      1.1955721      2.1671806
H      -0.5236871      4.5650105      3.0667536
C       0.7051209      1.9043619      1.7517543
C       4.7133248      0.8756635     -0.3451083
C       4.6775138      2.8970939     -2.2851562
H       1.9256379     -0.8186295      3.8570473
H       4.7392830      0.0871226      0.4094238
H       4.6516176      3.6838739     -3.0423903
C       2.0399802     -0.1602847      1.7914590
C       2.1079296     -1.1256366      2.8262116
C       3.4690427      1.2279042     -0.9433047
C       3.4597797      2.2580614     -1.9294439
H      -0.1062536      1.5524216      1.1083957
C       2.2409832      0.5907327     -0.5850320
C       2.2210647      2.6210322     -2.5285724
C       2.2369616     -0.4703582      0.4616220
C       2.3939784     -2.4277422      2.5115265
H       2.2133144      3.4132830     -3.2802522
H       2.4550388     -3.1835366      3.2961076
C       1.0519469      2.0005482     -2.1785090
C       1.0536980      0.9640284     -1.1975673
C       2.5160042     -1.8351669      0.1262598
C       2.6125361     -2.8133053      1.1600799
O      -0.0758763      0.3491772     -0.8283625
H       0.0992340      2.2845773     -2.6243058
C       2.7266135     -2.2380998     -1.2218856
C       2.9327748     -4.1560211      0.8179020
H       2.6413797     -1.4932756     -2.0143954
H       3.0059232     -4.8965336      1.6166253
C       3.0332460     -3.5445243     -1.5217485
C       3.1435689     -4.5130921     -0.4924087
H       3.1911576     -3.8410139     -2.5595664
H       3.3894242     -5.5451463     -0.7464332
H      -1.4007803     -1.8136192      2.4775407
C      -3.7904976     -1.1636326      1.8246415
C      -4.8852271     -0.3784175      1.2566945
C      -2.9414223      0.8764396      1.2073539
C      -1.3180688     -0.7728761      2.1402989
C      -4.3908204      0.8254614      0.8403298
N      -2.6328835     -0.3490046      1.7330642
O      -2.1588360      1.8090944      1.0898266
O      -3.7869538     -2.2591972      2.3476484
H      -5.9074305     -0.7458863      1.2151196
H      -0.9381960     -0.1522937      2.9688396
H      -4.9307492      1.7253717      0.5547570
H      -0.6240437     -0.7259065      1.2880132
          85

O      -1.9726346      1.9046539     -1.8257940
C      -3.1846939      1.7328657     -1.7249223
O      -4.0496088      2.7486556     -1.8860574
C      -3.5050476      4.0234749     -2.2292574
C      -3.2079364      4.1136768     -3.7135374
C      -3.8349944      0.4925448     -1.3815253
N      -3.0597690     -0.5975128     -1.2383532
C      -3.6015609     -1.7455241     -0.9805353
C      -2.7802422     -2.9102481     -0.6434733
C      -3.3883737     -4.1225679     -0.2870339
C      -2.6174428     -5.2314648      0.0594053
C      -1.2248032     -5.1438481      0.0583380
C      -0.6099426     -3.9351785     -0.2861667
C      -1.3760099     -2.8266743     -0.6295285
H      -4.2726099      4.7496072     -1.9343859
H      -2.5991549      4.1967268     -1.6328090
H      -2.8540025      5.1229396     -3.9662405
H      -4.1142532      3.9055188     -4.2992050
H      -2.4298297      3.3909752     -3.9937334
H      -0.8857985      0.7760582     -1.2180316
H      -4.9111128      0.4241096     -1.5754630
H      -4.6918613     -1.8949211     -1.0399895
H      -4.4789322     -4.1886118     -0.2747639
H      -3.1063738     -6.1679959      0.3348278
H      -0.6188526     -6.0110039      0.3280645
H       0.4782894     -3.8580735     -0.2877455
H      -0.9026275     -1.8759747     -0.8847133
H       2.1620523      4.0893414      3.6360599
C       1.8993594      3.1877936      3.0913698
H       3.4425284      1.6152034      3.4589100
H      -1.0720063      3.7334775      1.5752342
C       2.5243172      1.9804797      3.0086750
H       0.2369336      4.9716879      1.4945123
C      -0.2124200      4.1714444      2.0938538
N       0.7695501      3.1102358      2.3042247
H       6.8203117      1.2255679     -0.2444398
H       6.7944707      3.0304042     -1.9734494
C       5.8768243      1.5124617     -0.7120122
C       5.8639446      2.5353356     -1.6923033
N       1.7595457      1.1951610      2.1674596
H      -0.5245303      4.5639736      3.0678341
C       0.7044934      1.9034940      1.7525333
C       4.7135104      0.8758086     -0.3450618
C       4.6771201      2.8973284     -2.2851430
H       1.9249217     -0.8194437      3.8569395
H       4.7395509      0.0872475      0.4094360
H       4.6511291      3.6841358     -3.0423361
C       2.0399912     -0.1606000      1.7916106
C       2.1076009     -1.1262105      2.8261071
C       3.4691660      1.2281330     -0.9430331
C       3.4594043      2.2582664     -1.9291629
H      -0.1080458      1.5512820      1.1107088
C       2.2413984      0.5906757     -0.5846628
C       2.2204293      2.6210349     -2.5278754
C       2.2373341     -0.4705380      0.4618135
C       2.3937418     -2.4282392      2.5112091
H       2.2122451      3.4133926     -3.2794231
H       2.4545577     -3.1842002      3.2956429
C       1.0514358      2.0000733     -2.1777186
C       1.0541349      0.9634331     -1.1972012
C       2.5162230     -1.8352538      0.1260868
C       2.6126082     -2.8135589      1.1597461
O      -0.0743170      0.3456303     -0.8280219
H       0.0987099      2.2838955     -2.6236190
C       2.7268103     -2.2380008     -1.2221403
C       2.9329866     -4.1561866      0.8173552
H       2.6420608     -1.4930861     -2.0146662
H       3.0061937     -4.8968048      1.6159731
C       3.0333442     -3.5444051     -1.5222279
C       3.1437925     -4.5130828     -0.4930091
H       3.1912531     -3.8407166     -2.5600935
H       3.3897519     -5.5450768     -0.7471628
H      -1.4075815     -1.8130991      2.4831683
C      -3.7951572     -1.1611929      1.8217223
C      -4.8803454     -0.3814381      1.2434253
C      -2.9346993      0.8753349      1.2004018
C      -1.3202833     -0.7728876      2.1452641
C      -4.3776046      0.8191953      0.8069145
N      -2.6324402     -0.3456484      1.7341585
O      -2.1520325      1.8096257      1.0864908
O      -3.7880997     -2.2553824      2.3509818
H      -5.9038564     -0.7446485      1.2003017
H      -0.9395858     -0.1532368      2.9742611
H      -4.9190864      1.7267076      0.5473128
H      -0.6234956     -0.7289121      1.2949173
          85

O      -1.9787683      1.9009565     -1.8293644
C      -3.1887511      1.7363304     -1.7160523
O      -4.0519596      2.7490970     -1.8851552
C      -3.5070269      4.0239154     -2.2322031
C      -3.2082427      4.1112435     -3.7161539
C      -3.8415921      0.4985830     -1.3427859
N      -3.0576015     -0.5945353     -1.2283287
C      -3.5990993     -1.7426345     -0.9782562
C      -2.7782083     -2.9101718     -0.6454900
C      -3.3880686     -4.1212886     -0.2897258
C      -2.6180691     -5.2304813      0.0582586
C      -1.2254835     -5.1429915      0.0586725
C      -0.6091551     -3.9352731     -0.2863029
C      -1.3744674     -2.8265787     -0.6309268
H      -4.2753996      4.7498857     -1.9394740
H      -2.6020345      4.1982232     -1.6346979
H      -2.8558386      5.1209198     -3.9692721
H      -4.1135186      3.9011508     -4.3027050
H      -2.4284826      3.3897421     -3.9946613
H      -0.8850999      0.7688838     -1.2174726
H      -4.9112315      0.4236821     -1.5699717
H      -4.6893701     -1.8917517     -1.0358246
H      -4.4786649     -4.1860801     -0.2777447
H      -3.1074799     -6.1665685      0.3341247
H      -0.6202804     -6.0101522      0.3301514
H       0.4790937     -3.8589516     -0.2865795
H      -0.9007374     -1.8758090     -0.8851346
H       2.1606684      4.0889409      3.6361765
C       1.8981946      3.1872987      3.0915397
H       3.4421791      1.6154156      3.4586311
H      -1.0742425      3.7315508      1.5773434
C       2.5236903      1.9802864      3.0086414
H       0.2343749      4.9700986      1.4943040
C      -0.2142267      4.1701681      2.0946771
N       0.7681603      3.1092572      2.3047658
H       6.8203964      1.2255043     -0.2447933
H       6.7942904      3.0303763     -1.9737330
C       5.8768272      1.5124410     -0.7121657
C       5.8637755      2.5353664     -1.6924482
N       1.7590040      1.1946615      2.1675981
H      -0.5252234      4.5633893      3.0687548
C       0.7034658      1.9024712      1.7531242
C       4.7135763      0.8758741     -0.3450352
C       4.6769161      2.8975290     -2.2850838
H       1.9238861     -0.8202995      3.8566483
H       4.7395981      0.0872834      0.4094228
H       4.6509233      3.6843890     -3.0422167
C       2.0396904     -0.1609702      1.7915735
C       2.1070274     -1.1268241      2.8258309
C       3.4692094      1.2283482     -0.9428507
C       3.4591559      2.2585200     -1.9289346
H      -0.1100895      1.5499305      1.1127083
C       2.2416839      0.5906841     -0.5844708
C       2.2200156      2.6212304     -2.5273070
C       2.2374761     -0.4707056      0.4618059
C       2.3934422     -2.4287385      2.5107559
H       2.2115309      3.4137231     -3.2786997
H       2.4540971     -3.1848545      3.2950499
C       1.0510795      1.9999151     -2.1770943
C       1.0544449      0.9630676     -1.1970040
C       2.5163424     -1.8353278      0.1257632
C       2.6126789     -2.8137787      1.1592777
O      -0.0729559      0.3431236     -0.8274000
H       0.0984517      2.2837556     -2.6231864
C       2.7269049     -2.2379057     -1.2225315
C       2.9332587     -4.1563200      0.8167171
H       2.6421557     -1.4929138     -2.0149913
H       3.0065526     -4.8970174      1.6152537
C       3.0334643     -3.5442685     -1.5227987
C       3.1440755     -4.5130534     -0.4936910
H       3.1913453     -3.8404477     -2.5607071
H       3.3901634     -5.5449877     -0.7479622
H      -1.4137703     -1.8136752      2.4860210
C      -3.8006796     -1.1584991      1.8200561
C      -4.8759394     -0.3830240      1.2348412
C      -2.9274609      0.8744012      1.1954574
C      -1.3218757     -0.7736402      2.1486000
C      -4.3632890      0.8139606      0.7739483
N      -2.6318109     -0.3420388      1.7360455
O      -2.1448294      1.8103715      1.0845494
O      -3.7885191     -2.2528033      2.3530041
H      -5.9009265     -0.7414595      1.1895624
H      -0.9389718     -0.1560235      2.9782419
H      -4.9059730      1.7300026      0.5464921
H      -0.6235504     -0.7318208      1.2992606
          85

O      -1.9820683      1.8981893     -1.8335843
C      -3.1895249      1.7395088     -1.7059152
O      -4.0529467      2.7467893     -1.8880586
C      -3.5104064      4.0229810     -2.2380159
C      -3.2071687      4.1108944     -3.7209458
C      -3.8431672      0.5064946     -1.2999562
N      -3.0533038     -0.5900886     -1.2109876
C      -3.5957564     -1.7387626     -0.9750296
C      -2.7762364     -2.9107815     -0.6500523
C      -3.3875051     -4.1211968     -0.2955016
C      -2.6181280     -5.2295815      0.0572410
C      -1.2256781     -5.1411998      0.0619670
C      -0.6081666     -3.9348945     -0.2855771
C      -1.3728918     -2.8271249     -0.6344006
H      -4.2819305      4.7466248     -1.9481615
H      -2.6078188      4.2005739     -1.6377899
H      -2.8578686      5.1223758     -3.9713242
H      -4.1095966      3.8984174     -4.3110126
H      -2.4236086      3.3929327     -3.9976581
H      -0.8846089      0.7647454     -1.2161155
H      -4.9067573      0.4257707     -1.5562069
H      -4.6862004     -1.8861268     -1.0318537
H      -4.4781076     -4.1855860     -0.2850630
H      -3.1078894     -6.1650663      0.3344009
H      -0.6211290     -6.0072321      0.3385315
H       0.4800457     -3.8585938     -0.2832772
H      -0.8987460     -1.8763977     -0.8880501
H       2.1577572      4.0881098      3.6356427
C       1.8954134      3.1862750      3.0912671
H       3.4406631      1.6154268      3.4574010
H      -1.0794320      3.7281300      1.5815030
C       2.5216317      1.9796779      3.0080323
H       0.2291133      4.9665930      1.4923008
C      -0.2181085      4.1680118      2.0955228
N       0.7647710      3.1074336      2.3054275
H       6.8201174      1.2249689     -0.2451393
H       6.7942473      3.0297754     -1.9741027
C       5.8765387      1.5121728     -0.7123229
C       5.8636041      2.5351177     -1.6926213
N       1.7567939      1.1935162      2.1676139
H      -0.5263242      4.5634668      3.0695807
C       0.7005218      1.9005378      1.7539225
C       4.7132041      0.8759818     -0.3449749
C       4.6767694      2.8978226     -2.2849352
H       1.9218380     -0.8217224      3.8559103
H       4.7390231      0.0873872      0.4094787
H       4.6509184      3.6847684     -3.0419819
C       2.0382025     -0.1617874      1.7911386
C       2.1056567     -1.1279136      2.8251175
C       3.4689187      1.2287913     -0.9426820
C       3.4588604      2.2591430     -1.9286177
H      -0.1141477      1.5476574      1.1150484
C       2.2415844      0.5909852     -0.5844586
C       2.2197503      2.6220769     -2.5268274
C       2.2369645     -0.4709476      0.4613737
C       2.3930949     -2.4295340      2.5098887
H       2.2112520      3.4146606     -3.2781209
H       2.4539801     -3.1858096      3.2940106
C       1.0507788      2.0006353     -2.1766449
C       1.0544487      0.9635653     -1.1968477
C       2.5163103     -1.8354462      0.1250298
C       2.6128212     -2.8140980      1.1583751
O      -0.0719491      0.3421865     -0.8266139
H       0.0983747      2.2846253     -2.6230338
C       2.7270539     -2.2378884     -1.2232898
C       2.9336991     -4.1565445      0.8156798
H       2.6421638     -1.4928262     -2.0156676
H       3.0071060     -4.8972830      1.6141706
C       3.0337335     -3.5442070     -1.5237142
C       3.1444570     -4.5131516     -0.4947622
H       3.1916701     -3.8402286     -2.5616613
H       3.3906319     -5.5450324     -0.7491706
H      -1.4187735     -1.8148204      2.4901148
C      -3.8047453     -1.1548124      1.8198950
C      -4.8726467     -0.3783964      1.2370888
C      -2.9187887      0.8748041      1.1940189
C      -1.3219893     -0.7754974      2.1515240
C      -4.3499720      0.8146182      0.7560657
N      -2.6296993     -0.3392093      1.7373608
O      -2.1344166      1.8101010      1.0814351
O      -3.7880758     -2.2520628      2.3504181
H      -5.8994995     -0.7310544      1.1907732
H      -0.9367594     -0.1585887      2.9809500
H      -4.8915300      1.7391834      0.5544461
H      -0.6220995     -0.7374692      1.3030449
          85

O      -1.9789282      1.8991461     -1.8416995
C      -3.1843062      1.7411356     -1.6976815
O      -4.0519335      2.7405002     -1.8962687
C      -3.5141572      4.0198977     -2.2434476
C      -3.2052649      4.1145596     -3.7244901
C      -3.8371431      0.5142531     -1.2556375
N      -3.0491567     -0.5901994     -1.2016753
C      -3.5943904     -1.7401306     -0.9819610
C      -2.7764506     -2.9147785     -0.6577424
C      -3.3874277     -4.1241556     -0.2994919
C      -2.6168644     -5.2302671      0.0587180
C      -1.2245832     -5.1400282      0.0653817
C      -0.6078874     -3.9339663     -0.2839234
C      -1.3735936     -2.8285986     -0.6374794
H      -4.2897094      4.7393986     -1.9541366
H      -2.6144566      4.1993981     -1.6394775
H      -2.8560554      5.1277808     -3.9676247
H      -4.1047906      3.9046112     -4.3197259
H      -2.4196830      3.3990171     -4.0015112
H      -0.8839313      0.7677023     -1.2167757
H      -4.8984022      0.4346585     -1.5255455
H      -4.6856373     -1.8837667     -1.0362593
H      -4.4779409     -4.1897203     -0.2900163
H      -3.1057039     -6.1652666      0.3389673
H      -0.6194061     -6.0043056      0.3460321
H       0.4801252     -3.8557373     -0.2785804
H      -0.9007988     -1.8770662     -0.8906472
H       2.1559986      4.0873711      3.6343301
C       1.8931362      3.1853527      3.0905075
H       3.4390182      1.6148648      3.4554255
H      -1.0832557      3.7261159      1.5834636
C       2.5194332      1.9788303      3.0069593
H       0.2255435      4.9640492      1.4904293
C      -0.2211771      4.1666674      2.0956194
N       0.7616365      3.1060732      2.3059290
H       6.8192510      1.2244097     -0.2455930
H       6.7938187      3.0287753     -1.9749138
C       5.8756728      1.5119128     -0.7125920
C       5.8629966      2.5346874     -1.6930428
N       1.7538285      1.1922961      2.1675758
H      -0.5278942      4.5639418      3.0693976
C       0.6969785      1.8989810      1.7548758
C       4.7122265      0.8762221     -0.3447969
C       4.6761395      2.8980230     -2.2848394
H       1.9205694     -0.8227619      3.8553718
H       4.7379301      0.0877444      0.4097822
H       4.6502866      3.6849675     -3.0418842
C       2.0361343     -0.1626898      1.7906648
C       2.1045917     -1.1288102      2.8245757
C       3.4680659      1.2291545     -0.9424833
C       3.4582253      2.2597401     -1.9282273
H      -0.1185019      1.5463881      1.1166851
C       2.2408546      0.5910947     -0.5846861
C       2.2195481      2.6231517     -2.5267743
C       2.2358029     -0.4713274      0.4608791
C       2.3932674     -2.4301396      2.5093566
H       2.2114821      3.4158740     -3.2779163
H       2.4549414     -3.1863745      3.2934535
C       1.0506387      2.0016524     -2.1771362
C       1.0542472      0.9646509     -1.1973237
C       2.5161450     -1.8357204      0.1245115
C       2.6129867     -2.8144788      1.1577934
O      -0.0723138      0.3445450     -0.8267697
H       0.0985735      2.2857175     -2.6239677
C       2.7272905     -2.2381135     -1.2237739
C       2.9338521     -4.1569265      0.8150280
H       2.6425021     -1.4930196     -2.0161523
H       3.0071914     -4.8976977      1.6134969
C       3.0340953     -3.5444072     -1.5242674
C       3.1445574     -4.5134970     -0.4954298
H       3.1922137     -3.8403022     -2.5622233
H       3.3905951     -5.5453892     -0.7499219
H      -1.4224552     -1.8107716      2.4974648
C      -3.8077634     -1.1550451      1.8145342
C      -4.8730823     -0.3758022      1.2416205
C      -2.9141918      0.8757622      1.1938259
C      -1.3244538     -0.7732607      2.1538817
C      -4.3442927      0.8205960      0.7663582
N      -2.6283714     -0.3399981      1.7289148
O      -2.1303496      1.8111350      1.0704860
O      -3.7916958     -2.2532276      2.3450630
H      -5.9008671     -0.7249830      1.1933027
H      -0.9462265     -0.1512176      2.9826304
H      -4.8843847      1.7485227      0.5768127
H      -0.6181871     -0.7390163      1.3107170
          85

O      -1.9824183      1.8950715     -1.8505705
C      -3.1880215      1.7362084     -1.7104073
O      -4.0553666      2.7368679     -1.9040906
C      -3.5164143      4.0171587     -2.2459390
C      -3.2048059      4.1152577     -3.7261604
C      -3.8412741      0.5071051     -1.2752025
N      -3.0519716     -0.5960341     -1.2170561
C      -3.5966207     -1.7453588     -0.9921329
C      -2.7778708     -2.9174477     -0.6613378
C      -3.3880902     -4.1265623     -0.3010831
C      -2.6168222     -5.2315821      0.0588060
C      -1.2246041     -5.1402273      0.0657111
C      -0.6087569     -3.9337646     -0.2837112
C      -1.3751561     -2.8294045     -0.6389630
H      -4.2922246      4.7361321     -1.9560410
H      -2.6178241      4.1943296     -1.6396339
H      -2.8546510      5.1287715     -3.9666512
H      -4.1034664      3.9069785     -4.3232881
H      -2.4191752      3.3998409     -4.0033415
H      -0.8843916      0.7648189     -1.2208551
H      -4.9019350      0.4267542     -1.5473711
H      -4.6874577     -1.8907506     -1.0485125
H      -4.4785557     -4.1930673     -0.2925210
H      -3.1049956     -6.1667342      0.3397172
H      -0.6188320     -6.0039031      0.3469440
H       0.4791862     -3.8545168     -0.2776239
H      -0.9026616     -1.8780044     -0.8933214
H       2.1550502      4.0869005      3.6338820
C       1.8920487      3.1848561      3.0901671
H       3.4380088      1.6143207      3.4546440
H      -1.0845453      3.7249888      1.5831924
C       2.5182869      1.9783042      3.0064613
H       0.2240452      4.9628889      1.4891709
C      -0.2224302      4.1659336      2.0951001
N       0.7603897      3.1055011      2.3058449
H       6.8187178      1.2239959     -0.2461199
H       6.7933626      3.0281750     -1.9756851
C       5.8751042      1.5117139     -0.7129192
C       5.8624831      2.5343838     -1.6934829
N       1.7524522      1.1917346      2.1673469
H      -0.5290393      4.5639170      3.0686144
C       0.6953396      1.8983261      1.7549740
C       4.7115709      0.8763471     -0.3447499
C       4.6755262      2.8979896     -2.2849094
H       1.9203788     -0.8231224      3.8551801
H       4.7373432      0.0879256      0.4098908
H       4.6496275      3.6848896     -3.0420012
C       2.0352449     -0.1631604      1.7903851
C       2.1043349     -1.1291615      2.8243713
C       3.4672991      1.2292786     -0.9423164
C       3.4575659      2.2598977     -1.9280485
H      -0.1203752      1.5458159      1.1167733
C       2.2400422      0.5909016     -0.5848884
C       2.2189168      2.6232934     -2.5266662
C       2.2351512     -0.4716424      0.4605864
C       2.3934443     -2.4303878      2.5091445
H       2.2108433      3.4162253     -3.2775888
H       2.4554758     -3.1865872      3.2932484
C       1.0500576      2.0014222     -2.1775014
C       1.0535073      0.9640034     -1.1981098
C       2.5160491     -1.8359344      0.1242643
C       2.6130264     -2.8146822      1.1575509
O      -0.0732210      0.3438041     -0.8282381
H       0.0979966      2.2854305     -2.6244359
C       2.7274287     -2.2382456     -1.2239960
C       2.9337866     -4.1571559      0.8147737
H       2.6423523     -1.4931157     -2.0162671
H       3.0070351     -4.8979509      1.6132294
C       3.0343079     -3.5445174     -1.5244787
C       3.1445097     -4.5136913     -0.4956836
H       3.1925684     -3.8403944     -2.5624213
H       3.3904372     -5.5456051     -0.7502062
H      -1.4301822     -1.8077672      2.4968957
C      -3.8139171     -1.1581055      1.8032569
C      -4.8777415     -0.3838544      1.2212565
C      -2.9217714      0.8726156      1.1803291
C      -1.3325609     -0.7710442      2.1508708
C      -4.3500980      0.8130625      0.7448712
N      -2.6356388     -0.3413140      1.7197061
O      -2.1391062      1.8093897      1.0601432
O      -3.7981333     -2.2536042      2.3393918
H      -5.9046861     -0.7351612      1.1703377
H      -0.9583695     -0.1461831      2.9793100
H      -4.8919256      1.7398115      0.5544280
H      -0.6232062     -0.7379446      1.3102143
          85

O      -1.9862031      1.8911762     -1.8585277
C      -3.1921835      1.7313395     -1.7233432
O      -4.0590519      2.7336532     -1.9112971
C      -3.5185569      4.0145242     -2.2481244
C      -3.2043909      4.1153192     -3.7276024
C      -3.8457859      0.4996452     -1.2974535
N      -3.0550300     -0.6016053     -1.2327135
C      -3.5989665     -1.7501934     -1.0013681
C      -2.7793328     -2.9195599     -0.6640669
C      -3.3887857     -4.1285060     -0.3021435
C      -2.6168804     -5.2326740      0.0587547
C      -1.2247117     -5.1404116      0.0655261
C      -0.6096536     -3.9334533     -0.2836420
C      -1.3767445     -2.8298754     -0.6398798
H      -4.2943951      4.7333124     -1.9578636
H      -2.6209786      4.1893301     -1.6396418
H      -2.8533129      5.1289800     -3.9660708
H      -4.1022822      3.9083780     -4.3263569
H      -2.4187695      3.3998575     -4.0046737
H      -0.8849388      0.7619843     -1.2248773
H      -4.9061230      0.4185369     -1.5702344
H      -4.6893165     -1.8976000     -1.0600765
H      -4.4792072     -4.1958392     -0.2942925
H      -3.1044468     -6.1680410      0.3400189
H      -0.6183742     -6.0037011      0.3467218
H       0.4782393     -3.8533902     -0.2770698
H      -0.9049046     -1.8783571     -0.8949402
H       2.1541704      4.0863139      3.6339066
C       1.8911312      3.1843059      3.0901469
H       3.4371412      1.6137083      3.4542369
H      -1.0855263      3.7241168      1.5830712
C       2.5173526      1.9777497      3.0062276
H       0.2230888      4.9617884      1.4879541
C      -0.2232715      4.1653451      2.0946341
N       0.7594492      3.1049763      2.3058835
H       6.8184021      1.2235854     -0.2468510
H       6.7930250      3.0274970     -1.9767443
C       5.8747167      1.5115535     -0.7133514
C       5.8620939      2.5340741     -1.6940698
N       1.7514334      1.1912412      2.1671552
H      -0.5297211      4.5640911      3.0678727
C       0.6941196      1.8977985      1.7550247
C       4.7110980      0.8765771     -0.3446482
C       4.6749898      2.8980031     -2.2849895
H       1.9205437     -0.8234419      3.8550380
H       4.7369964      0.0882324      0.4100745
H       4.6489910      3.6848258     -3.0421566
C       2.0346111     -0.1635822      1.7901546
C       2.1043268     -1.1294766      2.8241997
C       3.4666824      1.2295068     -0.9420262
C       3.4569992      2.2601414     -1.9277488
H      -0.1217154      1.5453856      1.1166948
C       2.2393399      0.5907706     -0.5850078
C       2.2183812      2.6234759     -2.5264839
C       2.2346209     -0.4719461      0.4603356
C       2.3936895     -2.4306380      2.5089388
H       2.2103118      3.4165600     -3.2772431
H       2.4560428     -3.1868014      3.2930507
C       1.0495739      2.0012050     -2.1778382
C       1.0529075      0.9634688     -1.1988198
C       2.5159843     -1.8361560      0.1240310
C       2.6130381     -2.8149224      1.1573107
O      -0.0740810      0.3427789     -0.8300242
H       0.0975019      2.2850217     -2.6249478
C       2.7276571     -2.2383939     -1.2242003
C       2.9336516     -4.1574262      0.8145032
H       2.6427104     -1.4932314     -2.0164555
H       3.0067598     -4.8982589      1.6129357
C       3.0345758     -3.5446549     -1.5246921
C       3.1444505     -4.5139223     -0.4959510
H       3.1930428     -3.8404676     -2.5626210
H       3.3902630     -5.5458546     -0.7505080
H      -1.4375599     -1.8049980      2.4963609
C      -3.8197364     -1.1611157      1.7926050
C      -4.8821371     -0.3920969      1.2007145
C      -2.9294365      0.8694868      1.1671610
C      -1.3402464     -0.7690980      2.1478161
C      -4.3562146      0.8052608      0.7231659
N      -2.6427900     -0.3425246      1.7114219
O      -2.1478645      1.8075809      1.0505067
O      -3.8043441     -2.2538280      2.3343321
H      -5.9081526     -0.7458147      1.1473851
H      -0.9692524     -0.1415547      2.9756395
H      -4.9000033      1.7306041      0.5315245
H      -0.6284290     -0.7373256      1.3091366
          85

O      -1.9905304      1.8876792     -1.8654713
C      -3.1969305      1.7266713     -1.7362964
O      -4.0631224      2.7308824     -1.9180128
C      -3.5203921      4.0121156     -2.2499330
C      -3.2039919      4.1146096     -3.7288035
C      -3.8504699      0.4919429     -1.3208176
N      -3.0582951     -0.6071071     -1.2487423
C      -3.6014250     -1.7546813     -1.0095390
C      -2.7807406     -2.9210324     -0.6655098
C      -3.3895360     -4.1298958     -0.3025569
C      -2.6170874     -5.2335176      0.0584694
C      -1.2249564     -5.1405093      0.0647991
C      -0.6105624     -3.9330286     -0.2838140
C      -1.3782657     -2.8298605     -0.6400447
H      -4.2958213      4.7311926     -1.9593455
H      -2.6236275      4.1841399     -1.6394669
H      -2.8521483      5.1282052     -3.9663561
H      -4.1013065      3.9083280     -4.3286616
H      -2.4184500      3.3988648     -4.0053588
H      -0.8853854      0.7592224     -1.2289804
H      -4.9114278      0.4100726     -1.5924046
H      -4.6912363     -1.9043733     -1.0703124
H      -4.4799195     -4.1979282     -0.2955030
H      -3.1040855     -6.1692376      0.3395543
H      -0.6181125     -6.0036659      0.3453029
H       0.4773072     -3.8524573     -0.2773333
H      -0.9070012     -1.8782778     -0.8958327
H       2.1532760      4.0855889      3.6345361
C       1.8903382      3.1837021      3.0905230
H       3.4364429      1.6130803      3.4542140
H      -1.0861566      3.7233527      1.5829844
C       2.5166502      1.9771986      3.0062612
H       0.2225926      4.9606500      1.4865974
C      -0.2237387      4.1648580      2.0941525
N       0.7587804      3.1044919      2.3060956
H       6.8184156      1.2231834     -0.2479126
H       6.7928084      3.0267340     -1.9782582
C       5.8745896      1.5114535     -0.7139448
C       5.8618523      2.5337600     -1.6948838
N       1.7508332      1.1908577      2.1669516
H      -0.5300272      4.5645434      3.0670424
C       0.6933272      1.8973914      1.7550629
C       4.7108952      0.8769561     -0.3444649
C       4.6744993      2.8980466     -2.2850681
H       1.9211370     -0.8236596      3.8549196
H       4.7370181      0.0886787      0.4103305
H       4.6483002      3.6847239     -3.0423771
C       2.0342138     -0.1639467      1.7899353
C       2.1045974     -1.1297150      2.8240330
C       3.4662233      1.2298970     -0.9414554
C       3.4565072      2.2604985     -1.9272168
H      -0.1225415      1.5450615      1.1165123
C       2.2387801      0.5907125     -0.5849530
C       2.2179421      2.6236475     -2.5261971
C       2.2341482     -0.4723044      0.4601072
C       2.3939987     -2.4308666      2.5087276
H       2.2099060      3.4168013     -3.2768784
H       2.4566274     -3.1869519      3.2928923
C       1.0492164      2.0009179     -2.1781457
C       1.0524904      0.9629260     -1.1994932
C       2.5159141     -1.8364572      0.1238009
C       2.6130216     -2.8152605      1.1570725
O      -0.0748185      0.3416222     -0.8321209
H       0.0971204      2.2843714     -2.6255325
C       2.7279928     -2.2385779     -1.2244000
C       2.9334481     -4.1578193      0.8142085
H       2.6432425     -1.4933473     -2.0166152
H       3.0063570     -4.8987290      1.6125879
C       3.0349742     -3.5448201     -1.5249228
C       3.1443945     -4.5142243     -0.4962545
H       3.1936541     -3.8405434     -2.5628467
H       3.3900632     -5.5461752     -0.7508771
H      -1.4447857     -1.8023602      2.4958177
C      -3.8254161     -1.1640945      1.7825261
C      -4.8859348     -0.4007898      1.1793913
C      -2.9367290      0.8662457      1.1543282
C      -1.3477565     -0.7673484      2.1445757
C      -4.3619445      0.7969620      0.7005396
N      -2.6499752     -0.3433989      1.7045047
O      -2.1567164      1.8060668      1.0417160
O      -3.8103961     -2.2538379      2.3301212
H      -5.9110307     -0.7568900      1.1235783
H      -0.9786135     -0.1372641      2.9712564
H      -4.9073834      1.7208827      0.5081536
H      -0.6344909     -0.7372347      1.3069677
          85

O      -1.9955058      1.8838427     -1.8697919
C      -3.2025995      1.7225051     -1.7499802
O      -4.0666338      2.7302428     -1.9221201
C      -3.5213539      4.0109619     -2.2507052
C      -3.2039691      4.1133148     -3.7296136
C      -3.8576112      0.4836259     -1.3513384
N      -3.0616813     -0.6112752     -1.2614033
C      -3.6037609     -1.7574258     -1.0131595
C      -2.7818367     -2.9213292     -0.6657515
C      -3.3899542     -4.1305296     -0.3034520
C      -2.6175519     -5.2339015      0.0578178
C      -1.2254960     -5.1407084      0.0639757
C      -0.6114513     -3.9329360     -0.2843279
C      -1.3793774     -2.8297289     -0.6403097
H      -4.2957901      4.7311074     -1.9601557
H      -2.6247384      4.1805746     -1.6393555
H      -2.8520957      5.1267018     -3.9677180
H      -4.1011677      3.9063542     -4.3293232
H      -2.4184796      3.3972214     -4.0054668
H      -0.8858478      0.7555436     -1.2325260
H      -4.9163234      0.3986220     -1.6279833
H      -4.6927318     -1.9097606     -1.0769682
H      -4.4802938     -4.1993886     -0.2976765
H      -3.1045529     -6.1695327      0.3392440
H      -0.6183232     -6.0034515      0.3450187
H       0.4763582     -3.8522036     -0.2783961
H      -0.9081766     -1.8784188     -0.8970123
H       2.1523963      4.0851649      3.6348459
C       1.8897746      3.1832338      3.0909126
H       3.4358569      1.6122147      3.4546078
H      -1.0863772      3.7229830      1.5826338
C       2.5164340      1.9768439      3.0064167
H       0.2225101      4.9599883      1.4857118
C      -0.2239235      4.1645937      2.0937061
N       0.7584575      3.1042453      2.3060951
H       6.8185513      1.2229101     -0.2483108
H       6.7925866      3.0264611     -1.9791203
C       5.8748225      1.5114291     -0.7142912
C       5.8617872      2.5334561     -1.6955172
N       1.7507849      1.1907511      2.1666942
H      -0.5301975      4.5649149      3.0663437
C       0.6931050      1.8972214      1.7549623
C       4.7109587      0.8772964     -0.3444683
C       4.6741736      2.8980040     -2.2852422
H       1.9213400     -0.8234580      3.8546015
H       4.7374018      0.0887032      0.4099664
H       4.6479495      3.6850675     -3.0421540
C       2.0340656     -0.1640845      1.7896934
C       2.1049513     -1.1296374      2.8238142
C       3.4659942      1.2301750     -0.9410247
C       3.4561685      2.2608304     -1.9266952
H      -0.1229188      1.5446850      1.1166297
C       2.2382920      0.5908634     -0.5846336
C       2.2175646      2.6233460     -2.5260534
C       2.2335813     -0.4726358      0.4598690
C       2.3941736     -2.4308640      2.5085815
H       2.2093103      3.4171189     -3.2760786
H       2.4563991     -3.1869152      3.2928328
C       1.0489625      2.0003273     -2.1783851
C       1.0520792      0.9625056     -1.1996570
C       2.5157927     -1.8368187      0.1236438
C       2.6131067     -2.8156238      1.1569880
O      -0.0753839      0.3400704     -0.8338483
H       0.0967580      2.2840194     -2.6254491
C       2.7283122     -2.2386567     -1.2245601
C       2.9332892     -4.1582872      0.8140951
H       2.6433399     -1.4935483     -2.0169065
H       3.0062244     -4.8992771      1.6124742
C       3.0352591     -3.5448831     -1.5250727
C       3.1443866     -4.5144096     -0.4964819
H       3.1936228     -3.8405300     -2.5630145
H       3.3898201     -5.5463886     -0.7513293
H      -1.4512109     -1.8013976      2.4938749
C      -3.8303641     -1.1661330      1.7759866
C      -4.8895512     -0.4077122      1.1620011
C      -2.9440427      0.8627405      1.1424133
C      -1.3535107     -0.7669284      2.1410859
C      -4.3666840      0.7873467      0.6723834
N      -2.6565590     -0.3436484      1.7011755
O      -2.1646065      1.8037674      1.0374834
O      -3.8137167     -2.2543042      2.3267812
H      -5.9143368     -0.7652543      1.1062253
H      -0.9829679     -0.1359539      2.9665511
H      -4.9135714      1.7110660      0.4804663
H      -0.6409298     -0.7384534      1.3026669
          85

O      -1.9999498      1.8783041     -1.8742055
C      -3.2079144      1.7178683     -1.7627488
O      -4.0690946      2.7298853     -1.9246233
C      -3.5216025      4.0102240     -2.2510732
C      -3.2045735      4.1133912     -3.7298428
C      -3.8647531      0.4750873     -1.3839529
N      -3.0655395     -0.6147879     -1.2754093
C      -3.6051069     -1.7602918     -1.0181013
C      -2.7824671     -2.9224234     -0.6669982
C      -3.3904829     -4.1318241     -0.3047012
C      -2.6180896     -5.2349490      0.0572366
C      -1.2259779     -5.1412689      0.0641637
C      -0.6120453     -3.9335039     -0.2847268
C      -1.3800248     -2.8306354     -0.6419232
H      -4.2953438      4.7308075     -1.9598294
H      -2.6250199      4.1782665     -1.6392616
H      -2.8523755      5.1267617     -3.9677267
H      -4.1020842      3.9071816     -4.3294517
H      -2.4193217      3.3973205     -4.0064735
H      -0.8871802      0.7507256     -1.2344676
H      -4.9239600      0.3884834     -1.6586709
H      -4.6934294     -1.9160158     -1.0854700
H      -4.4808405     -4.2004519     -0.2986130
H      -3.1049396     -6.1708735      0.3379654
H      -0.6188445     -6.0041616      0.3448292
H       0.4758452     -3.8527213     -0.2783090
H      -0.9088202     -1.8794446     -0.8991080
H       2.1524252      4.0853947      3.6342114
C       1.8896337      3.1834859      3.0901626
H       3.4357019      1.6127806      3.4538926
H      -1.0865434      3.7226360      1.5816843
C       2.5159481      1.9769706      3.0059071
H       0.2218358      4.9602430      1.4858572
C      -0.2243664      4.1643270      2.0933184
N       0.7582944      3.1042495      2.3054755
H       6.8180489      1.2228813     -0.2481979
H       6.7923881      3.0265139     -1.9786019
C       5.8742166      1.5112533     -0.7141530
C       5.8614480      2.5335671     -1.6951184
N       1.7502668      1.1906771      2.1664923
H      -0.5312367      4.5638739      3.0660675
C       0.6926501      1.8971345      1.7544674
C       4.7104409      0.8768324     -0.3446024
C       4.6740355      2.8978651     -2.2852121
H       1.9210096     -0.8236602      3.8547798
H       4.7366841      0.0885357      0.4101743
H       4.6478505      3.6845186     -3.0425449
C       2.0338783     -0.1641352      1.7897008
C       2.1044808     -1.1297587      2.8239128
C       3.4655647      1.2297723     -0.9414930
C       3.4559130      2.2603066     -1.9273033
H      -0.1230953      1.5444251      1.1157649
C       2.2378275      0.5904507     -0.5851546
C       2.2170853      2.6230552     -2.5261917
C       2.2337144     -0.4725269      0.4598915
C       2.3939947     -2.4308941      2.5086451
H       2.2087333      3.4162814     -3.2767971
H       2.4566370     -3.1869509      3.2928342
C       1.0482692      1.9999008     -2.1783882
C       1.0512291      0.9615372     -1.2000905
C       2.5157735     -1.8365778      0.1236789
C       2.6129877     -2.8153138      1.1569989
O      -0.0760970      0.3381964     -0.8339006
H       0.0960597      2.2831876     -2.6259070
C       2.7279187     -2.2386431     -1.2244981
C       2.9334117     -4.1578691      0.8141620
H       2.6431119     -1.4934433     -2.0167349
H       3.0063281     -4.8987727      1.6125436
C       3.0349617     -3.5448686     -1.5249787
C       3.1443459     -4.5142665     -0.4963030
H       3.1936773     -3.8406026     -2.5628924
H       3.3900024     -5.5462183     -0.7509291
H      -1.4557965     -1.8016523      2.4894871
C      -3.8348447     -1.1676075      1.7698680
C      -4.8934185     -0.4139011      1.1455573
C      -2.9513511      0.8597205      1.1310450
C      -1.3585818     -0.7667708      2.1379005
C      -4.3735674      0.7782549      0.6451159
N      -2.6627024     -0.3442862      1.6971751
O      -2.1718753      1.8013036      1.0345515
O      -3.8163805     -2.2543396      2.3232838
H      -5.9168531     -0.7752352      1.0887518
H      -0.9886128     -0.1366556      2.9641209
H      -4.9229035      1.7000974      0.4524215
H      -0.6457895     -0.7368282      1.2997375
          85

O      -2.0027080      1.8733923     -1.8813736
C      -3.2113290      1.7121871     -1.7761174
O      -4.0715215      2.7272311     -1.9296418
C      -3.5219307      4.0079040     -2.2510623
C      -3.2052645      4.1149529     -3.7297178
C      -3.8678896      0.4667254     -1.4109398
N      -3.0690336     -0.6211371     -1.2938715
C      -3.6072094     -1.7661274     -1.0293020
C      -2.7833745     -2.9248297     -0.6705932
C      -3.3908630     -4.1338918     -0.3059879
C      -2.6182974     -5.2363623      0.0572386
C      -1.2261992     -5.1422162      0.0646264
C      -0.6127072     -3.9343289     -0.2846822
C      -1.3808973     -2.8321666     -0.6438321
H      -4.2943794      4.7288571     -1.9572457
H      -2.6249135      4.1723092     -1.6389022
H      -2.8519065      5.1284059     -3.9655167
H      -4.1033255      3.9111443     -4.3293453
H      -2.4210640      3.3985044     -4.0084031
H      -0.8879223      0.7477556     -1.2374744
H      -4.9272643      0.3802467     -1.6826870
H      -4.6949973     -1.9245655     -1.0983852
H      -4.4812005     -4.2031193     -0.3009005
H      -3.1049666     -6.1722982      0.3382855
H      -0.6188262     -6.0047339      0.3459046
H       0.4751612     -3.8530526     -0.2776953
H      -0.9097832     -1.8813290     -0.9025206
H       2.1524079      4.0861519      3.6320363
C       1.8892918      3.1839786      3.0885818
H       3.4352658      1.6131840      3.4524617
H      -1.0872448      3.7221534      1.5801720
C       2.5153474      1.9772913      3.0047384
H       0.2203435      4.9606373      1.4859501
C      -0.2255897      4.1640023      2.0926454
N       0.7576190      3.1044174      2.3044355
H       6.8169254      1.2228933     -0.2473573
H       6.7914481      3.0270022     -1.9772957
C       5.8732328      1.5110482     -0.7137263
C       5.8605565      2.5335852     -1.6944648
N       1.7491717      1.1906362      2.1661439
H      -0.5333130      4.5625805      3.0655186
C       0.6914116      1.8969926      1.7541880
C       4.7094832      0.8762159     -0.3448755
C       4.6733385      2.8974522     -2.2852755
H       1.9198499     -0.8235582      3.8547720
H       4.7356143      0.0878346      0.4098103
H       4.6473413      3.6842158     -3.0425019
C       2.0330569     -0.1641982      1.7896243
C       2.1036436     -1.1296917      2.8239761
C       3.4647570      1.2290595     -0.9421327
C       3.4551629      2.2595213     -1.9279851
H      -0.1244170      1.5441461      1.1155706
C       2.2370117      0.5898681     -0.5855505
C       2.2161214      2.6222332     -2.5265719
C       2.2332544     -0.4726162      0.4598797
C       2.3936593     -2.4307331      2.5087973
H       2.2075143      3.4156613     -3.2769634
H       2.4563794     -3.1867911      3.2929795
C       1.0472812      1.9990962     -2.1785871
C       1.0502903      0.9605494     -1.2004901
C       2.5155806     -1.8365331      0.1237778
C       2.6129625     -2.8150815      1.1571915
O      -0.0771410      0.3372541     -0.8341171
H       0.0948866      2.2825476     -2.6256824
C       2.7274098     -2.2386247     -1.2244245
C       2.9336349     -4.1575513      0.8144415
H       2.6422774     -1.4935253     -2.0167109
H       3.0068342     -4.8983651      1.6128766
C       3.0344859     -3.5448366     -1.5248217
C       3.1443501     -4.5140400     -0.4960236
H       3.1930049     -3.8407059     -2.5627225
H       3.3901588     -5.5459755     -0.7505605
H      -1.4618452     -1.8000326      2.4850265
C      -3.8390768     -1.1706186      1.7594350
C      -4.8973487     -0.4217805      1.1260950
C      -2.9595058      0.8570845      1.1192213
C      -1.3661391     -0.7647260      2.1343555
C      -4.3802135      0.7715582      0.6302848
N      -2.6696673     -0.3457846      1.6885682
O      -2.1814718      1.7999747      1.0267880
O      -3.8222816     -2.2540833      2.3184478
H      -5.9196430     -0.7858971      1.0665597
H      -1.0009079     -0.1340851      2.9622507
H      -4.9312961      1.6905636      0.4284207
H      -0.6504829     -0.7326556      1.2987377
          85

O      -2.0046994      1.8691197     -1.8886988
C      -3.2140095      1.7062979     -1.7900110
O      -4.0736791      2.7238104     -1.9357250
C      -3.5225770      4.0050334     -2.2513506
C      -3.2057795      4.1167079     -3.7296897
C      -3.8700725      0.4581547     -1.4402941
N      -3.0721168     -0.6270949     -1.3105908
C      -3.6092961     -1.7717503     -1.0400133
C      -2.7845772     -2.9274259     -0.6747621
C      -3.3913079     -4.1363252     -0.3079638
C      -2.6184015     -5.2377537      0.0574407
C      -1.2263319     -5.1429580      0.0653592
C      -0.6135059     -3.9348773     -0.2845805
C      -1.3820734     -2.8336689     -0.6460026
H      -4.2942138      4.7258644     -1.9550236
H      -2.6254554      4.1661074     -1.6384666
H      -2.8512468      5.1303836     -3.9627484
H      -4.1041617      3.9155502     -4.3297502
H      -2.4224751      3.4000922     -4.0105211
H      -0.8888331      0.7456745     -1.2407492
H      -4.9309431      0.3721722     -1.7056855
H      -4.6965259     -1.9325383     -1.1121632
H      -4.4816092     -4.2064088     -0.3038938
H      -3.1047948     -6.1735888      0.3393591
H      -0.6185961     -6.0048703      0.3476907
H       0.4743177     -3.8528117     -0.2767475
H      -0.9112067     -1.8830286     -0.9058695
H       2.1521480      4.0867926      3.6299411
C       1.8886971      3.1843705      3.0870594
H       3.4347385      1.6135787      3.4508076
H      -1.0882882      3.7215934      1.5788756
C       2.5145857      1.9775668      3.0034591
H       0.2186837      4.9606980      1.4855091
C      -0.2269808      4.1636576      2.0918539
N       0.7566251      3.1044691      2.3035436
H       6.8159279      1.2228798     -0.2468553
H       6.7905022      3.0272489     -1.9765608
C       5.8723089      1.5108803     -0.7134690
C       5.8596623      2.5335259     -1.6940910
N       1.7478903      1.1905487      2.1657116
H      -0.5352984      4.5617565      3.0647316
C       0.6898983      1.8967635      1.7539748
C       4.7085769      0.8757558     -0.3450318
C       4.6725371      2.8970698     -2.2853162
H       1.9189215     -0.8234497      3.8547133
H       4.7347003      0.0873069      0.4095847
H       4.6466033      3.6838626     -3.0425154
C       2.0320370     -0.1643282      1.7894650
C       2.1028867     -1.1296403      2.8239669
C       3.4638807      1.2285090     -0.9424608
C       3.4543612      2.2589012     -1.9283663
H      -0.1259899      1.5437701      1.1153871
C       2.2360308      0.5894086     -0.5858154
C       2.2152629      2.6215105     -2.5269641
C       2.2324878     -0.4728276      0.4597886
C       2.3934244     -2.4306061      2.5089229
H       2.2065864      3.4149924     -3.2773002
H       2.4563327     -3.1865730      3.2931774
C       1.0463984      1.9983743     -2.1789934
C       1.0492613      0.9598071     -1.2009034
C       2.5152635     -1.8366357      0.1238483
C       2.6129191     -2.8150215      1.1573641
O      -0.0784401      0.3366227     -0.8347832
H       0.0939169      2.2818021     -2.6259751
C       2.7270010     -2.2387171     -1.2243565
C       2.9338243     -4.1574393      0.8146747
H       2.6415948     -1.4936844     -2.0166700
H       3.0072644     -4.8982006      1.6131349
C       3.0341805     -3.5449001     -1.5246922
C       3.1443609     -4.5139729     -0.4958076
H       3.1925412     -3.8408602     -2.5625901
H       3.3902699     -5.5458951     -0.7503000
H      -1.4675923     -1.7980864      2.4818887
C      -3.8433239     -1.1736839      1.7494264
C      -4.9021296     -0.4285807      1.1084975
C      -2.9679979      0.8544617      1.1074904
C      -1.3732914     -0.7628625      2.1306528
C      -4.3884199      0.7652629      0.6161388
N      -2.6765162     -0.3476666      1.6798944
O      -2.1911480      1.7983593      1.0186019
O      -3.8280620     -2.2546116      2.3124177
H      -5.9233729     -0.7955206      1.0475434
H      -1.0124402     -0.1306339      2.9592185
H      -4.9406445      1.6811906      0.4048165
H      -0.6550566     -0.7299007      1.2972883
          85

O      -2.0053869      1.8656122     -1.8959589
C      -3.2155479      1.6999359     -1.8044490
O      -4.0755468      2.7195320     -1.9428975
C      -3.5234454      4.0016127     -2.2518568
C      -3.2060982      4.1189612     -3.7297189
C      -3.8700708      0.4493798     -1.4716890
N      -3.0749552     -0.6332905     -1.3275517
C      -3.6115069     -1.7777397     -1.0513385
C      -2.7860382     -2.9301814     -0.6792537
C      -3.3917733     -4.1390818     -0.3102045
C      -2.6183406     -5.2392136      0.0577112
C      -1.2263079     -5.1435914      0.0664411
C      -0.6143441     -3.9352791     -0.2843153
C      -1.3834855     -2.8352851     -0.6481765
H      -4.2945665      4.7219495     -1.9528219
H      -2.6264026      4.1594050     -1.6380032
H      -2.8503234      5.1329955     -3.9593564
H      -4.1046032      3.9207589     -4.3306135
H      -2.4236013      3.4023322     -4.0128503
H      -0.8899348      0.7454187     -1.2440087
H      -4.9336017      0.3649260     -1.7254437
H      -4.6982346     -1.9405687     -1.1267245
H      -4.4820219     -4.2103172     -0.3074653
H      -3.1043534     -6.1749816      0.3405831
H      -0.6181004     -6.0047049      0.3501527
H       0.4734202     -3.8522186     -0.2754434
H      -0.9134628     -1.8844289     -0.9085226
H       2.1516870      4.0874183      3.6276951
C       1.8878735      3.1847303      3.0854277
H       3.4340769      1.6140115      3.4489424
H      -1.0896587      3.7210033      1.5776155
C       2.5136367      1.9778327      3.0020374
H       0.2167713      4.9605832      1.4848062
C      -0.2286267      4.1632723      2.0909739
N       0.7553356      3.1044443      2.3026432
H       6.8148595      1.2227845     -0.2464626
H       6.7895207      3.0273178     -1.9760191
C       5.8713044      1.5106882     -0.7132624
C       5.8587104      2.5333917     -1.6938060
N       1.7463736      1.1904013      2.1652280
H      -0.5374236      4.5610636      3.0638190
C       0.6881098      1.8964543      1.7537764
C       4.7075697      0.8753608     -0.3451084
C       4.6716577      2.8966923     -2.2853416
H       1.9180194     -0.8233656      3.8546341
H       4.7337098      0.0868712      0.4094669
H       4.6457541      3.6834786     -3.0425452
C       2.0308158     -0.1645161      1.7892705
C       2.1020769     -1.1296235      2.8239287
C       3.4629189      1.2280347     -0.9426832
C       3.4534961      2.2583457     -1.9286387
H      -0.1277721      1.5433365      1.1151488
C       2.2349127      0.5889992     -0.5860562
C       2.2144323      2.6208811     -2.5273986
C       2.2315305     -0.4730852      0.4596606
C       2.3932116     -2.4305045      2.5090308
H       2.2058154      3.4143332     -3.2777629
H       2.4564226     -3.1863490      3.2933764
C       1.0455305      1.9978164     -2.1795333
C       1.0482547      0.9593888     -1.2013501
C       2.5148662     -1.8367844      0.1238923
C       2.6128381     -2.8150143      1.1575200
O      -0.0800415      0.3363367     -0.8359757
H       0.0929691      2.2810652     -2.6264957
C       2.7266244     -2.2388818     -1.2242975
C       2.9339969     -4.1573758      0.8148961
H       2.6413232     -1.4939408     -2.0167469
H       3.0076738     -4.8980767      1.6133874
C       3.0339149     -3.5450441     -1.5245698
C       3.1443763     -4.5139771     -0.4955988
H       3.1921840     -3.8410573     -2.5624609
H       3.3903902     -5.5458839     -0.7500367
H      -1.4727957     -1.7958788      2.4792552
C      -3.8466314     -1.1770107      1.7392768
C      -4.9073944     -0.4343520      1.0928765
C      -2.9767937      0.8521598      1.0967716
C      -1.3803081     -0.7609854      2.1266507
C      -4.3980962      0.7608807      0.6095885
N      -2.6831328     -0.3501435      1.6705111
O      -2.2010009      1.7966051      1.0096471
O      -3.8342006     -2.2555414      2.3053048
H      -5.9275257     -0.8042767      1.0307507
H      -1.0244039     -0.1263182      2.9554419
H      -4.9507087      1.6724970      0.3826785
H      -0.6593695     -0.7275332      1.2956666
          85

O      -1.9962052      1.8700323     -1.8970853
C      -3.2073586      1.6971134     -1.8063484
O      -4.0724768      2.7146089     -1.9483199
C      -3.5236759      3.9984573     -2.2518175
C      -3.2057267      4.1235404     -3.7291404
C      -3.8561187      0.4485758     -1.4798591
N      -3.0730192     -0.6351984     -1.3288736
C      -3.6119117     -1.7814631     -1.0577980
C      -2.7871237     -2.9326188     -0.6834206
C      -3.3916395     -4.1419134     -0.3120568
C      -2.6172463     -5.2403652      0.0589410
C      -1.2252443     -5.1438911      0.0689403
C      -0.6144943     -3.9352852     -0.2828747
C      -1.3842373     -2.8367972     -0.6494372
H      -4.2959120      4.7166881     -1.9500352
H      -2.6268020      4.1559336     -1.6375950
H      -2.8489269      5.1384604     -3.9536973
H      -4.1039578      3.9288698     -4.3317169
H      -2.4236591      3.4075119     -4.0151655
H      -0.8902764      0.7537825     -1.2444634
H      -4.9275537      0.3709984     -1.7029807
H      -4.6991531     -1.9417858     -1.1349645
H      -4.4818381     -4.2146908     -0.3107298
H      -3.1027809     -6.1759793      0.3433009
H      -0.6164762     -6.0038881      0.3548318
H       0.4731638     -3.8506785     -0.2725324
H      -0.9147762     -1.8857386     -0.9101944
H       2.1513548      4.0883969      3.6248143
C       1.8869664      3.1853356      3.0834389
H       3.4335237      1.6148629      3.4465237
H      -1.0915647      3.7208695      1.5769091
C       2.5126225      1.9783561      3.0002895
H       0.2145714      4.9605573      1.4841049
C      -0.2305883      4.1631475      2.0903161
N       0.7536213      3.1044970      2.3018526
H       6.8137203      1.2227416     -0.2457457
H       6.7887300      3.0273290     -1.9751796
C       5.8702705      1.5105352     -0.7128372
C       5.8578960      2.5332539     -1.6933065
N       1.7445181      1.1902971      2.1648512
H      -0.5394216      4.5608547      3.0631863
C       0.6859818      1.8961522      1.7538163
C       4.7065136      0.8750201     -0.3450300
C       4.6709693      2.8963422     -2.2852277
H       1.9168822     -0.8232436      3.8545743
H       4.7325682      0.0865174      0.4095418
H       4.6451096      3.6831157     -3.0424520
C       2.0292618     -0.1646638      1.7890745
C       2.1009819     -1.1295815      2.8238954
C       3.4620236      1.2276289     -0.9428344
C       3.4529118      2.2579151     -1.9288353
H      -0.1295128      1.5430925      1.1147141
C       2.2339191      0.5888555     -0.5862541
C       2.2142056      2.6207486     -2.5280463
C       2.2303500     -0.4732263      0.4595000
C       2.3928977     -2.4303556      2.5091936
H       2.2061255      3.4140496     -3.2785843
H       2.4565975     -3.1860362      3.2936628
C       1.0452580      1.9982423     -2.1802350
C       1.0475229      0.9600430     -1.2016401
C       2.5143479     -1.8368988      0.1239789
C       2.6127052     -2.8149757      1.1577291
O      -0.0815523      0.3392299     -0.8368363
H       0.0927116      2.2814550     -2.6270863
C       2.7262440     -2.2390851     -1.2241669
C       2.9342196     -4.1572925      0.8152291
H       2.6407809     -1.4942023     -2.0166475
H       3.0081938     -4.8978915      1.6137899
C       3.0336650     -3.5452379     -1.5243369
C       3.1444123     -4.5140204     -0.4952630
H       3.1918572     -3.8413454     -2.5622129
H       3.3905429     -5.5459230     -0.7496099
H      -1.4686538     -1.7943861      2.4802318
C      -3.8409341     -1.1787299      1.7376431
C      -4.9105170     -0.4281626      1.1043673
C      -2.9790896      0.8546687      1.1025932
C      -1.3794737     -0.7600019      2.1254178
C      -4.4071310      0.7722298      0.6564428
N      -2.6816498     -0.3538496      1.6646702
O      -2.2027440      1.7967853      1.0049412
O      -3.8365840     -2.2576305      2.2990748
H      -5.9304907     -0.7987450      1.0448669
H      -1.0298123     -0.1215912      2.9540400
H      -4.9566058      1.6769485      0.3932050
H      -0.6560649     -0.7262111      1.2967635
          85

O      -1.9858166      1.8741719     -1.8939455
C      -3.1978408      1.6954882     -1.8093204
O      -4.0661587      2.7108350     -1.9550563
C      -3.5220902      3.9971031     -2.2522327
C      -3.2044373      4.1305552     -3.7288210
C      -3.8479736      0.4480045     -1.4923290
N      -3.0708490     -0.6371174     -1.3287230
C      -3.6113088     -1.7836080     -1.0605897
C      -2.7877734     -2.9353785     -0.6866985
C      -3.3912622     -4.1454779     -0.3151671
C      -2.6160941     -5.2421458      0.0597619
C      -1.2241760     -5.1441848      0.0729734
C      -0.6144423     -3.9355994     -0.2807630
C      -1.3847576     -2.8388689     -0.6510278
H      -4.2965424      4.7117367     -1.9472030
H      -2.6256322      4.1551562     -1.6374949
H      -2.8481338      5.1468030     -3.9481770
H      -4.1023837      3.9383227     -4.3325907
H      -2.4218690      3.4163932     -4.0183848
H      -0.8915455      0.7628766     -1.2447711
H      -4.9200751      0.3762487     -1.7012047
H      -4.6994142     -1.9409430     -1.1352010
H      -4.4813613     -4.2200048     -0.3156547
H      -3.1012126     -6.1777180      0.3450532
H      -0.6149747     -6.0026843      0.3624479
H       0.4730839     -3.8494526     -0.2686239
H      -0.9158106     -1.8876582     -0.9122891
H       2.1501457      4.0897629      3.6211157
C       1.8853414      3.1862421      3.0807118
H       3.4323394      1.6161845      3.4436925
H      -1.0940724      3.7210740      1.5754779
C       2.5109963      1.9792375      2.9980142
H       0.2117969      4.9609649      1.4833133
C      -0.2332088      4.1631810      2.0891404
N       0.7512518      3.1046722      2.3002760
H       6.8122746      1.2223573     -0.2442811
H       6.7883617      3.0270836     -1.9735323
C       5.8691078      1.5101326     -0.7119635
C       5.8573776      2.5329188     -1.6923174
N       1.7421622      1.1903963      2.1640210
H      -0.5421871      4.5603924      3.0621758
C       0.6834184      1.8959461      1.7530904
C       4.7051668      0.8744554     -0.3448996
C       4.6707867      2.8958651     -2.2849653
H       1.9150487     -0.8227600      3.8542677
H       4.7309052      0.0859296      0.4096649
H       4.6452095      3.6826449     -3.0421964
C       2.0272037     -0.1646191      1.7885882
C       2.0993521     -1.1292708      2.8236726
C       3.4609880      1.2271055     -0.9432351
C       3.4526817      2.2574261     -1.9292249
H      -0.1315739      1.5426482      1.1135980
C       2.2324985      0.5889265     -0.5868053
C       2.2145658      2.6207016     -2.5292184
C       2.2286147     -0.4731954      0.4590495
C       2.3922307     -2.4299350      2.5093597
H       2.2073136      3.4136458     -3.2801505
H       2.4564396     -3.1853759      3.2940214
C       1.0453330      1.9990981     -2.1815161
C       1.0463724      0.9613796     -1.2021288
C       2.5134153     -1.8368828      0.1240010
C       2.6123707     -2.8147008      1.1579898
O      -0.0837470      0.3432280     -0.8374934
H       0.0932592      2.2825839     -2.6290152
C       2.7254451     -2.2393510     -1.2240278
C       2.9345110     -4.1569588      0.8158009
H       2.6396032     -1.4946733     -2.0166639
H       3.0089193     -4.8973177      1.6145458
C       3.0332759     -3.5454745     -1.5239230
C       3.1445514     -4.5139640     -0.4946406
H       3.1913829     -3.8417749     -2.5617570
H       3.3909926     -5.5458459     -0.7487736
H      -1.4614331     -1.7965987      2.4750497
C      -3.8373824     -1.1798657      1.7414584
C      -4.9162023     -0.4184425      1.1289628
C      -2.9812517      0.8567399      1.1129756
C      -1.3750758     -0.7619297      2.1204689
C      -4.4167610      0.7845812      0.6921321
N      -2.6788614     -0.3574454      1.6626543
O      -2.2035635      1.7962418      1.0073347
O      -3.8338581     -2.2641481      2.2909285
H      -5.9351742     -0.7921658      1.0686677
H      -1.0261732     -0.1227471      2.9485894
H      -4.9605964      1.6849272      0.4198035
H      -0.6534352     -0.7261628      1.2905640
          85

O      -1.9783952      1.8771874     -1.8887708
C      -3.1921967      1.6923860     -1.8151665
O      -4.0619542      2.7094769     -1.9603354
C      -3.5193879      3.9964348     -2.2523353
C      -3.2024051      4.1360259     -3.7285849
C      -3.8393564      0.4442557     -1.5193933
N      -3.0709074     -0.6387116     -1.3324391
C      -3.6117866     -1.7857089     -1.0610022
C      -2.7883806     -2.9363405     -0.6870164
C      -3.3907807     -4.1477881     -0.3166186
C      -2.6152958     -5.2435541      0.0599084
C      -1.2234315     -5.1447801      0.0756769
C      -0.6144789     -3.9360252     -0.2790695
C      -1.3849425     -2.8401625     -0.6512051
H      -4.2941917      4.7097427     -1.9448011
H      -2.6226856      4.1538352     -1.6378002
H      -2.8470092      5.1532146     -3.9448417
H      -4.1003104      3.9448334     -4.3327332
H      -2.4193208      3.4234422     -4.0207570
H      -0.8929922      0.7712130     -1.2451161
H      -4.9193067      0.3786985     -1.6958234
H      -4.7003261     -1.9420576     -1.1358321
H      -4.4808144     -4.2236618     -0.3188138
H      -3.1003362     -6.1793549      0.3447444
H      -0.6140022     -6.0024357      0.3670348
H       0.4729811     -3.8490187     -0.2662324
H      -0.9159811     -1.8891767     -0.9133636
H       2.1486564      4.0907517      3.6187709
C       1.8838135      3.1869774      3.0788172
H       3.4310265      1.6171870      3.4420917
H      -1.0957092      3.7217621      1.5735370
C       2.5095466      1.9799870      2.9964957
H       0.2100497      4.9616481      1.4826702
C      -0.2350722      4.1634474      2.0878474
N       0.7494973      3.1049908      2.2987646
H       6.8113229      1.2217587     -0.2428884
H       6.7885391      3.0266189     -1.9720184
C       5.8684478      1.5096270     -0.7111076
C       5.8573797      2.5324620     -1.6913718
N       1.7405389      1.1907071      2.1631361
H      -0.5444896      4.5600231      3.0610041
C       0.6818167      1.8960892      1.7519637
C       4.7042499      0.8739574     -0.3447384
C       4.6711099      2.8954113     -2.2846847
H       1.9136359     -0.8220588      3.8538786
H       4.7296041      0.0854011      0.4098143
H       4.6459274      3.6822074     -3.0419193
C       2.0256929     -0.1643815      1.7880096
C       2.0980370     -1.1287685      2.8233541
C       3.4603763      1.2267430     -0.9435925
C       3.4528394      2.2570831     -1.9295825
H      -0.1321077      1.5425553      1.1114626
C       2.2314898      0.5890888     -0.5874002
C       2.2151363      2.6206923     -2.5302280
C       2.2272702     -0.4730429      0.4585101
C       2.3915423     -2.4293838      2.5093938
H       2.2085849      3.4133788     -3.2814524
H       2.4560916     -3.1846081      3.2942390
C       1.0455882      1.9998787     -2.1826464
C       1.0454934      0.9624333     -1.2026724
C       2.5125438     -1.8367817      0.1238913
C       2.6119553     -2.8143318      1.1581215
O      -0.0855442      0.3464999     -0.8383906
H       0.0936780      2.2835727     -2.6303299
C       2.7246750     -2.2395438     -1.2240207
C       2.9346887     -4.1565374      0.8162858
H       2.6384501     -1.4950804     -2.0168151
H       3.0094489     -4.8966514      1.6152252
C       3.0329566     -3.5456372     -1.5235914
C       3.1447296     -4.5138122     -0.4940771
H       3.1910373     -3.8421553     -2.5613670
H       3.3915285     -5.5456676     -0.7479709
H      -1.4537958     -1.8011098      2.4655711
C      -3.8316764     -1.1809098      1.7454195
C      -4.9204994     -0.4104474      1.1468884
C      -2.9848598      0.8586488      1.1219486
C      -1.3709508     -0.7652387      2.1138251
C      -4.4277058      0.7933978      0.7295034
N      -2.6776442     -0.3607201      1.6632931
O      -2.2057246      1.7953658      1.0125677
O      -3.8315527     -2.2686240      2.2844702
H      -5.9394391     -0.7850985      1.0916731
H      -1.0202528     -0.1277653      2.9423442
H      -4.9694999      1.6872036      0.4251019
H      -0.6534912     -0.7257633      1.2806805
          85

O      -1.9715093      1.8799040     -1.8833640
C      -3.1867449      1.6893571     -1.8226921
O      -4.0577789      2.7076219     -1.9666192
C      -3.5161350      3.9954856     -2.2523526
C      -3.1995351      4.1412500     -3.7281831
C      -3.8339132      0.4401366     -1.5484981
N      -3.0713135     -0.6417038     -1.3400883
C      -3.6122317     -1.7879296     -1.0635880
C      -2.7889817     -2.9372288     -0.6867522
C      -3.3904193     -4.1497140     -0.3169287
C      -2.6145437     -5.2449459      0.0602227
C      -1.2226868     -5.1455525      0.0776232
C      -0.6145406     -3.9364005     -0.2772735
C      -1.3852836     -2.8411201     -0.6505001
H      -4.2910563      4.7076212     -1.9419725
H      -2.6193047      4.1512698     -1.6375790
H      -2.8444296      5.1592411     -3.9413267
H      -4.0974709      3.9515344     -4.3328055
H      -2.4163148      3.4297456     -4.0229183
H      -0.8944791      0.7797390     -1.2463205
H      -4.9150676      0.3799626     -1.7064842
H      -4.7012665     -1.9437839     -1.1364225
H      -4.4803918     -4.2268235     -0.3205193
H      -3.0994323     -6.1811055      0.3442622
H      -0.6129345     -6.0027443      0.3696537
H       0.4728752     -3.8486581     -0.2640931
H      -0.9164258     -1.8903104     -0.9136415
H       2.1468497      4.0915397      3.6171766
C       1.8821629      3.1876378      3.0773609
H       3.4293972      1.6180026      3.4411785
H      -1.0968353      3.7227650      1.5709837
C       2.5079544      1.9806597      2.9953965
H       0.2088915      4.9626718      1.4819902
C      -0.2365570      4.1639581      2.0862392
N       0.7479896      3.1054854      2.2971162
H       6.8104410      1.2209217     -0.2414376
H       6.7889850      3.0259353     -1.9704563
C       5.8678880      1.5089598     -0.7102169
C       5.8576011      2.5318643     -1.6903865
N       1.7391329      1.1911743      2.1621245
H      -0.5467572      4.5597521      3.0594697
C       0.6806478      1.8965394      1.7503958
C       4.7033671      0.8734155     -0.3445818
C       4.6716891      2.8949023     -2.2843723
H       1.9123512     -0.8211685      3.8533904
H       4.7282675      0.0848558      0.4099895
H       4.6469647      3.6817116     -3.0416185
C       2.0243258     -0.1639961      1.7873137
C       2.0968147     -1.1281063      2.8229394
C       3.4598573      1.2263983     -0.9439718
C       3.4532000      2.2567405     -1.9299428
H      -0.1320514      1.5428408      1.1086558
C       2.2304980      0.5892753     -0.5881664
C       2.2159765      2.6208224     -2.5312687
C       2.2259402     -0.4728173      0.4578491
C       2.3908040     -2.4287119      2.5093554
H       2.2101969      3.4133192     -3.2827149
H       2.4556303     -3.1837093      3.2943996
C       1.0460617      2.0008403     -2.1839173
C       1.0446978      0.9635987     -1.2034963
C       2.5116377     -1.8366249      0.1236964
C       2.6114675     -2.8138852      1.1581900
O      -0.0875279      0.3501652     -0.8397876
H       0.0943828      2.2848691     -2.6318509
C       2.7238854     -2.2397080     -1.2240907
C       2.9347982     -4.1560462      0.8167411
H       2.6372911     -1.4954735     -2.0170584
H       3.0098916     -4.8959017      1.6158904
C       3.0326589     -3.5457696     -1.5233025
C       3.1449153     -4.5136060     -0.4935286
H       3.1907594     -3.8425243     -2.5610077
H       3.3921226     -5.5454317     -0.7471492
H      -1.4460604     -1.8066220      2.4524468
C      -3.8279246     -1.1826027      1.7495919
C      -4.9254229     -0.4045988      1.1655934
C      -2.9892641      0.8600485      1.1318770
C      -1.3669754     -0.7688668      2.1054741
C      -4.4385350      0.8023173      0.7631259
N      -2.6769298     -0.3638352      1.6638038
O      -2.2098471      1.7949149      1.0186140
O      -3.8295642     -2.2739544      2.2788616
H      -5.9433357     -0.7825708      1.1106493
H      -1.0137833     -0.1346258      2.9353253
H      -4.9768533      1.6901394      0.4448966
H      -0.6543481     -0.7239282      1.2686101
          85

O      -1.9653607      1.8815029     -1.8772539
C      -3.1820796      1.6857251     -1.8294542
O      -4.0534559      2.7057144     -1.9741774
C      -3.5120284      3.9944027     -2.2528073
C      -3.1951511      4.1473968     -3.7279428
C      -3.8278803      0.4359668     -1.5752063
N      -3.0721283     -0.6445303     -1.3480984
C      -3.6126777     -1.7905570     -1.0671881
C      -2.7894513     -2.9381714     -0.6873576
C      -3.3900156     -4.1514253     -0.3173318
C      -2.6138508     -5.2460380      0.0608799
C      -1.2219946     -5.1461621      0.0797301
C      -0.6145604     -3.9366341     -0.2752834
C      -1.3854965     -2.8420350     -0.6500352
H      -4.2869888      4.7053931     -1.9395517
H      -2.6153076      4.1479176     -1.6373330
H      -2.8400082      5.1662567     -3.9369265
H      -4.0929046      3.9599487     -4.3335674
H      -2.4118665      3.4370502     -4.0255485
H      -0.8962426      0.7887239     -1.2478108
H      -4.9150620      0.3816833     -1.7089152
H      -4.7021510     -1.9460781     -1.1382071
H      -4.4799405     -4.2296087     -0.3221790
H      -3.0986471     -6.1823999      0.3445506
H      -0.6119845     -6.0028999      0.3725467
H       0.4728058     -3.8481515     -0.2614322
H      -0.9166934     -1.8914420     -0.9142238
H       2.1445603      4.0922515      3.6159977
C       1.8801776      3.1883382      3.0760521
H       3.4271622      1.6186729      3.4407978
H      -1.0978294      3.7241600      1.5678425
C       2.5059793      1.9813352      2.9944823
H       0.2080000      4.9639738      1.4809102
C      -0.2379579      4.1648062      2.0841643
N       0.7464221      3.1062173      2.2951955
H       6.8094909      1.2197088     -0.2396579
H       6.7897962      3.0249049     -1.9685238
C       5.8673640      1.5080261     -0.7091296
C       5.8580999      2.5310078     -1.6891836
N       1.7376078      1.1918402      2.1608565
H      -0.5490613      4.5598423      3.0574142
C       0.6795603      1.8973160      1.7482808
C       4.7024097      0.8726986     -0.3443911
C       4.6726659      2.8942865     -2.2839938
H       1.9109560     -0.8199482      3.8527067
H       4.7266834      0.0841017      0.4101656
H       4.6485877      3.6811450     -3.0412165
C       2.0227853     -0.1634262      1.7863732
C       2.0954640     -1.1271812      2.8223458
C       3.4593613      1.2260292     -0.9445013
C       3.4538394      2.2564374     -1.9304158
H      -0.1317401      1.5435433      1.1050350
C       2.2294208      0.5896078     -0.5891977
C       2.2172060      2.6211630     -2.5325655
C       2.2243735     -0.4724551      0.4569430
C       2.3899444     -2.4277903      2.5092212
H       2.2124103      3.4134681     -3.2842330
H       2.4550763     -3.1825044      3.2945152
C       1.0467973      2.0021748     -2.1855530
C       1.0439005      0.9651136     -1.2046572
C       2.5105412     -1.8363578      0.1233597
C       2.6108517     -2.8132610      1.1581846
O      -0.0894936      0.3543307     -0.8414919
H       0.0954126      2.2866321     -2.6338585
C       2.7229570     -2.2398567     -1.2242635
C       2.9348647     -4.1553834      0.8172272
H       2.6359589     -1.4959214     -2.0174669
H       3.0103258     -4.8949117      1.6166457
C       3.0323247     -3.5458878     -1.5230146
C       3.1451097     -4.5133101     -0.4929181
H       3.1904928     -3.8429345     -2.5606258
H       3.3928040     -5.5451049     -0.7461903
H      -1.4377674     -1.8136373      2.4358032
C      -3.8242853     -1.1845393      1.7544056
C      -4.9301357     -0.3986524      1.1846092
C      -2.9937198      0.8613257      1.1425191
C      -1.3630056     -0.7733756      2.0955867
C      -4.4483000      0.8089798      0.7965619
N      -2.6766628     -0.3672695      1.6649600
O      -2.2143701      1.7948183      1.0264968
O      -3.8275951     -2.2794169      2.2734666
H      -5.9478409     -0.7778299      1.1328885
H      -1.0064800     -0.1440848      2.9276872
H      -4.9854981      1.6923150      0.4550720
H      -0.6561875     -0.7212579      1.2544410
          85

O      -1.9595157      1.8822353     -1.8703532
C      -3.1773860      1.6827265     -1.8351459
O      -4.0484758      2.7036260     -1.9836728
C      -3.5065563      3.9932890     -2.2537272
C      -3.1882650      4.1547666     -3.7276784
C      -3.8247416      0.4330766     -1.5957763
N      -3.0727009     -0.6475380     -1.3550707
C      -3.6129133     -1.7929306     -1.0715356
C      -2.7897042     -2.9395208     -0.6886769
C      -3.3895864     -4.1532115     -0.3181913
C      -2.6131686     -5.2469748      0.0618997
C      -1.2213500     -5.1463787      0.0825288
C      -0.6145087     -3.9367513     -0.2732214
C      -1.3856664     -2.8430859     -0.6502658
H      -4.2814623      4.7031197     -1.9373744
H      -2.6103593      4.1433729     -1.6366613
H      -2.8324952      5.1745720     -3.9310132
H      -4.0854685      3.9707285     -4.3351877
H      -2.4049842      3.4456293     -4.0284489
H      -0.8982342      0.7979575     -1.2497914
H      -4.9106543      0.3827378     -1.7218251
H      -4.7028853     -1.9481927     -1.1398899
H      -4.4794506     -4.2324174     -0.3243598
H      -3.0978401     -6.1834062      0.3456239
H      -0.6111121     -6.0024355      0.3768351
H       0.4727869     -3.8475055     -0.2584861
H      -0.9171477     -1.8926293     -0.9156799
H       2.1414584      4.0930059      3.6150704
C       1.8775416      3.1892020      3.0747159
H       3.4239369      1.6192943      3.4408845
H      -1.0989434      3.7261339      1.5638875
C       2.5032756      1.9821334      2.9936385
H       0.2072383      4.9657021      1.4789864
C      -0.2394424      4.1661978      2.0812493
N       0.7445737      3.1073624      2.2926894
H       6.8084283      1.2179333     -0.2372767
H       6.7911589      3.0233476     -1.9659640
C       5.8668881      1.5066651     -0.7076752
C       5.8590169      2.5297409     -1.6875967
N       1.7356680      1.1928524      2.1591282
H      -0.5515119      4.5606195      3.0544424
C       0.6782596      1.8985918      1.7454319
C       4.7013231      0.8717027     -0.3441528
C       4.6742584      2.8934537     -2.2835183
H       1.9091234     -0.8181727      3.8516682
H       4.7246658      0.0830439      0.4103684
H       4.6511520      3.6803969     -3.0406891
C       2.0208151     -0.1625092      1.7850237
C       2.0937274     -1.1257988      2.8214374
C       3.4589146      1.2256050     -0.9452698
C       3.4548859      2.2561267     -1.9310948
H      -0.1316832      1.5447919      1.1007166
C       2.2282278      0.5901247     -0.5906588
C       2.2189839      2.6217510     -2.5342338
C       2.2224170     -0.4718634      0.4556601
C       2.3888094     -2.4264135      2.5089283
H       2.2154236      3.4138866     -3.2860980
H       2.4543164     -3.1807514      3.2945543
C       1.0479006      2.0039892     -2.1876939
C       1.0431302      0.9670611     -1.2063704
C       2.5091053     -1.8358887      0.1227897
C       2.6099981     -2.8123005      1.1580659
O      -0.0914617      0.3590685     -0.8437899
H       0.0969665      2.2891376     -2.6365350
C       2.7217230     -2.2399730     -1.2246142
C       2.9348815     -4.1543837      0.8177874
H       2.6342116     -1.4964611     -2.0181602
H       3.0108097     -4.8934575      1.6175835
C       3.0318582     -3.5459764     -1.5227330
C       3.1453218     -4.5128274     -0.4921810
H       3.1900190     -3.8434420     -2.5602280
H       3.3936580     -5.5445895     -0.7449599
H      -1.4290655     -1.8229922      2.4145863
C      -3.8220441     -1.1871644      1.7600707
C      -4.9348969     -0.3945938      1.2057435
C      -2.9977310      0.8617556      1.1547260
C      -1.3585776     -0.7793741      2.0837915
C      -4.4570403      0.8154802      0.8267605
N      -2.6762135     -0.3708844      1.6667245
O      -2.2193202      1.7948459      1.0368091
O      -3.8251326     -2.2862233      2.2686202
H      -5.9523456     -0.7751102      1.1562451
H      -0.9973090     -0.1572710      2.9192303
H      -4.9922026      1.6956927      0.4838567
H      -0.6585630     -0.7179860      1.2377111
          85

O      -1.9549624      1.8817071     -1.8631942
C      -3.1739920      1.6795700     -1.8391088
O      -4.0435642      2.7019606     -1.9944003
C      -3.4997590      3.9923159     -2.2552015
C      -3.1779896      4.1630553     -3.7274150
C      -3.8213608      0.4307824     -1.6106737
N      -3.0740153     -0.6497200     -1.3600679
C      -3.6134389     -1.7953741     -1.0756090
C      -2.7899785     -2.9409238     -0.6910741
C      -3.3892014     -4.1548875     -0.3196090
C      -2.6125768     -5.2475071      0.0632650
C      -1.2208171     -5.1460814      0.0858953
C      -0.6144963     -3.9366251     -0.2714295
C      -1.3858328     -2.8441746     -0.6516056
H      -4.2745459      4.7013441     -1.9364673
H      -2.6047717      4.1380921     -1.6354259
H      -2.8206418      5.1837424     -3.9235907
H      -4.0739376      3.9837231     -4.3381955
H      -2.3948062      3.4548972     -4.0309637
H      -0.9003522      0.8068372     -1.2519912
H      -4.9119032      0.3849975     -1.7218550
H      -4.7037872     -1.9505218     -1.1417473
H      -4.4790107     -4.2350260     -0.3270144
H      -3.0971171     -6.1838096      0.3477260
H      -0.6103798     -6.0011836      0.3825605
H       0.4727274     -3.8465969     -0.2556161
H      -0.9174877     -1.8940148     -0.9185647
H       2.1374355      4.0938649      3.6143425
C       1.8740536      3.1902583      3.0733979
H       3.4195402      1.6199027      3.4413339
H      -1.1005864      3.7284064      1.5596023
C       2.4996063      1.9830964      2.9928842
H       0.2060720      4.9675880      1.4753543
C      -0.2411558      4.1681433      2.0772907
N       0.7423504      3.1090484      2.2894458
H       6.8073115      1.2154627     -0.2343425
H       6.7931682      3.0211338     -1.9628178
C       5.8665147      1.5047807     -0.7058729
C       5.8604274      2.5279800     -1.6856483
N       1.7331028      1.1943076      2.1568657
H      -0.5537707      4.5626390      3.0502809
C       0.6766183      1.9005092      1.7417456
C       4.7001474      0.8704142     -0.3438692
C       4.6765582      2.8923688     -2.2829633
H       1.9065733     -0.8157561      3.8501696
H       4.7221941      0.0816834      0.4106121
H       4.6547862      3.6794236     -3.0400659
C       2.0182513     -0.1611124      1.7831932
C       2.0914224     -1.1238576      2.8201205
C       3.4586073      1.2251671     -0.9462656
C       3.4564076      2.2558064     -1.9319838
H      -0.1320578      1.5466834      1.0957280
C       2.2270601      0.5908435     -0.5926043
C       2.2213475      2.6225819     -2.5362201
C       2.2200833     -0.4709657      0.4539692
C       2.3873100     -2.4244705      2.5084227
H       2.2192498      3.4146205     -3.2882072
H       2.4532598     -3.1783252      3.2944787
C       1.0493891      2.0062034     -2.1903442
C       1.0425082      0.9692683     -1.2087314
C       2.5073005     -1.8351455      0.1219539
C       2.6088576     -2.8109255      1.1577924
O      -0.0930621      0.3636694     -0.8468519
H       0.0989720      2.2922042     -2.6398178
C       2.7201343     -2.2399881     -1.2251828
C       2.9348002     -4.1529682      0.8183802
H       2.6320273     -1.4970178     -2.0191728
H       3.0113049     -4.8914609      1.6186612
C       3.0311820     -3.5459711     -1.5224941
C       3.1454874     -4.5120918     -0.4913572
H       3.1894392     -3.8439745     -2.5598222
H       3.3946273     -5.5438170     -0.7434978
H      -1.4205627     -1.8339939      2.3907703
C      -3.8197765     -1.1908748      1.7658543
C      -4.9393121     -0.3914680      1.2263147
C      -3.0017523      0.8616053      1.1675944
C      -1.3543531     -0.7867116      2.0710606
C      -4.4646542      0.8190457      0.8567586
N      -2.6761249     -0.3753815      1.6690831
O      -2.2243244      1.7945861      1.0487817
O      -3.8225932     -2.2937233      2.2643467
H      -5.9567195     -0.7727393      1.1800895
H      -0.9874988     -0.1730692      2.9102373
H      -5.0007064      1.6978879      0.5016485
H      -0.6618590     -0.7149869      1.2198614
          85

O      -1.9510470      1.8811307     -1.8556723
C      -3.1710988      1.6778756     -1.8411878
O      -4.0384454      2.7011880     -2.0056078
C      -3.4916511      3.9919400     -2.2567500
C      -3.1631236      4.1712609     -3.7264645
C      -3.8208844      0.4303003     -1.6183270
N      -3.0752673     -0.6511678     -1.3617411
C      -3.6142553     -1.7970056     -1.0782871
C      -2.7903887     -2.9423126     -0.6934669
C      -3.3889672     -4.1563872     -0.3210059
C      -2.6120644     -5.2477128      0.0649331
C      -1.2203939     -5.1452879      0.0893798
C      -0.6145869     -3.9363498     -0.2705600
C      -1.3862184     -2.8452617     -0.6540683
H      -4.2666224      4.7006166     -1.9374976
H      -2.5991182      4.1331117     -1.6324277
H      -2.8030512      5.1924918     -3.9146849
H      -4.0566178      3.9973751     -4.3423969
H      -2.3798864      3.4635880     -4.0311086
H      -0.9022959      0.8145567     -1.2546017
H      -4.9092548      0.3864202     -1.7290590
H      -4.7048739     -1.9521780     -1.1428584
H      -4.4787197     -4.2373430     -0.3291765
H      -3.0963805     -6.1837569      0.3506517
H      -0.6097232     -5.9992174      0.3889262
H       0.4725610     -3.8456119     -0.2541408
H      -0.9181287     -1.8954847     -0.9229950
H       2.1318220      4.0950142      3.6137484
C       1.8693235      3.1917589      3.0717893
H       3.4134550      1.6207178      3.4424335
H      -1.1033143      3.7311874      1.5549664
C       2.4946586      1.9844385      2.9920772
H       0.2043431      4.9692852      1.4688977
C      -0.2433986      4.1708849      2.0718414
N       0.7392872      3.1113125      2.2853428
H       6.8063296      1.2123048     -0.2308840
H       6.7959526      3.0181224     -1.9592588
C       5.8664356      1.5023639     -0.7037507
C       5.8624690      2.5256214     -1.6834355
N       1.7297423      1.1963128      2.1539510
H      -0.5556234      4.5667671      3.0443880
C       0.6743943      1.9030530      1.7369210
C       4.6990756      0.8688153     -0.3434986
C       4.6796805      2.8909763     -2.2823818
H       1.9028880     -0.8126162      3.8481971
H       4.7194852      0.0799994      0.4109282
H       4.6596311      3.6781213     -3.0394358
C       2.0150123     -0.1592084      1.7808463
C       2.0882475     -1.1212647      2.8184009
C       3.4585794      1.2246924     -0.9474993
C       3.4584967      2.2555039     -1.9330789
H      -0.1328478      1.5492128      1.0893162
C       2.2260205      0.5917561     -0.5950257
C       2.2243230      2.6236265     -2.5384698
C       2.2174308     -0.4697094      0.4518650
C       2.3851390     -2.4218615      2.5076796
H       2.2238309      3.4157411     -3.2903943
H       2.4514705     -3.1751336      3.2942617
C       1.0513450      2.0086508     -2.1935492
C       1.0421835      0.9715167     -1.2118825
C       2.5051112     -1.8340515      0.1208290
C       2.6072661     -2.8090387      1.1573603
O      -0.0941285      0.3677577     -0.8508387
H       0.1015741      2.2957247     -2.6437884
C       2.7181931     -2.2397776     -1.2259981
C       2.9344455     -4.1510376      0.8190085
H       2.6294549     -1.4974668     -2.0205372
H       3.0115670     -4.8888380      1.6198694
C       3.0302615     -3.5457531     -1.5223130
C       3.1455018     -4.5109749     -0.4904421
H       3.1886799     -3.8444341     -2.5594219
H       3.3955989     -5.5426619     -0.7417906
H      -1.4122241     -1.8462546      2.3662903
C      -3.8180933     -1.1960732      1.7719109
C      -4.9428963     -0.3921151      1.2461144
C      -3.0053498      0.8595364      1.1804961
C      -1.3502462     -0.7950978      2.0585026
C      -4.4714820      0.8206834      0.8823202
N      -2.6758820     -0.3807586      1.6720008
O      -2.2294643      1.7932505      1.0621615
O      -3.8194918     -2.3024970      2.2612949
H      -5.9606761     -0.7730921      1.2047687
H      -0.9776365     -0.1906554      2.9018593
H      -5.0075961      1.6989665      0.5346870
H      -0.6652096     -0.7121468      1.2023786
          85

O      -1.9482061      1.8803281     -1.8483759
C      -3.1690225      1.6769611     -1.8407796
O      -4.0334010      2.7015463     -2.0151587
C      -3.4828730      3.9922987     -2.2577797
C      -3.1435001      4.1779293     -3.7242678
C      -3.8198734      0.4310708     -1.6202528
N      -3.0771758     -0.6511184     -1.3608231
C      -3.6154177     -1.7977266     -1.0792917
C      -2.7910673     -2.9430342     -0.6955220
C      -3.3890304     -4.1570873     -0.3216061
C      -2.6117741     -5.2473161      0.0666708
C      -1.2201543     -5.1442085      0.0917041
C      -0.6148222     -3.9358960     -0.2711344
C      -1.3868108     -2.8459314     -0.6570938
H      -4.2589703      4.7010281     -1.9412146
H      -2.5945261      4.1298617     -1.6267825
H      -2.7801040      5.1993848     -3.9047605
H      -4.0327973      4.0089294     -4.3475780
H      -2.3594757      3.4702082     -4.0268081
H      -0.9037919      0.8212005     -1.2573201
H      -4.9113853      0.3903649     -1.7238064
H      -4.7062442     -1.9529339     -1.1424233
H      -4.4787553     -4.2385440     -0.3295544
H      -3.0958192     -6.1830007      0.3540586
H      -0.6092036     -5.9971359      0.3935008
H       0.4722904     -3.8447107     -0.2549090
H      -0.9190076     -1.8965251     -0.9279156
H       2.1246990      4.0969673      3.6121381
C       1.8632806      3.1939170      3.0693152
H       3.4061192      1.6224274      3.4432930
H      -1.1071732      3.7341063      1.5490835
C       2.4885106      1.9864789      2.9907951
H       0.2017603      4.9707709      1.4597291
C      -0.2465449      4.1740673      2.0645159
N       0.7350945      3.1139644      2.2801563
H       6.8056253      1.2086643     -0.2274984
H       6.7992686      3.0145742     -1.9558187
C       5.8666613      1.4995964     -0.7016718
C       5.8649614      2.5228933     -1.6813161
N       1.7254725      1.1987630      2.1505677
H      -0.5580359      4.5723573      3.0363151
C       0.6712593      1.9058400      1.7312749
C       4.6982121      0.8671356     -0.3431287
C       4.6833305      2.8893944     -2.2819088
H       1.8978686     -0.8090273      3.8459244
H       4.7168071      0.0782845      0.4112988
H       4.6651425      3.6766642     -3.0388901
C       2.0111873     -0.1568641      1.7782366
C       2.0840975     -1.1182282      2.8164466
C       3.4588887      1.2243010     -0.9487902
C       3.4610042      2.2551682     -1.9342994
H      -0.1344288      1.5518147      1.0820452
C       2.2253034      0.5928172     -0.5976830
C       2.2277580      2.6246500     -2.5409183
C       2.2147182     -0.4681350      0.4496127
C       2.3820317     -2.4188332      2.5068226
H       2.2289387      3.4168044     -3.2928084
H       2.4484489     -3.1715020      3.2939748
C       1.0536992      2.0109631     -2.1971765
C       1.0422834      0.9735857     -1.2155706
C       2.5027400     -1.8326558      0.1196301
C       2.6050993     -2.8068199      1.1568904
O      -0.0945417      0.3709369     -0.8555935
H       0.1045755      2.2989868     -2.6482946
C       2.7162443     -2.2392853     -1.2268592
C       2.9335093     -4.1487926      0.8196740
H       2.6270770     -1.4976335     -2.0219653
H       3.0110322     -4.8859071      1.6211282
C       3.0292383     -3.5452836     -1.5221131
C       3.1451866     -4.5095694     -0.4894458
H       3.1879006     -3.8446958     -2.5589746
H       3.3962284     -5.5412380     -0.7399250
H      -1.4041607     -1.8577738      2.3449133
C      -3.8160512     -1.2030102      1.7774345
C      -4.9456099     -0.3946851      1.2637792
C      -3.0086653      0.8564455      1.1932038
C      -1.3462953     -0.8034062      2.0477564
C      -4.4767557      0.8190416      0.9061375
N      -2.6754901     -0.3870391      1.6754226
O      -2.2341469      1.7910183      1.0756678
O      -3.8155938     -2.3126171      2.2588435
H      -5.9629784     -0.7771434      1.2246953
H      -0.9684085     -0.2070657      2.8944830
H      -5.0153035      1.6979289      0.5561206
H      -0.6681458     -0.7103230      1.1873636
          85

O      -1.9468789      1.8803787     -1.8444952
C      -3.1680580      1.6768282     -1.8405630
O      -4.0311826      2.7017665     -2.0197116
C      -3.4789073      3.9925891     -2.2583002
C      -3.1334946      4.1808320     -3.7231130
C      -3.8196158      0.4314711     -1.6211262
N      -3.0777893     -0.6510438     -1.3605743
C      -3.6158249     -1.7979442     -1.0800326
C      -2.7913337     -2.9432730     -0.6964695
C      -3.3891059     -4.1571754     -0.3216245
C      -2.6117495     -5.2469318      0.0677922
C      -1.2201399     -5.1436510      0.0928892
C      -0.6149477     -3.9357328     -0.2715030
C      -1.3870422     -2.8462435     -0.6586281
H      -4.2558383      4.7012902     -1.9436792
H      -2.5929662      4.1287364     -1.6236044
H      -2.7685392      5.2024055     -3.8999987
H      -4.0203901      4.0138457     -4.3504308
H      -2.3488185      3.4731168     -4.0239673
H      -0.9043003      0.8239955     -1.2585114
H      -4.9116318      0.3916902     -1.7237134
H      -4.7066847     -1.9532412     -1.1430617
H      -4.4788276     -4.2387384     -0.3293259
H      -3.0957273     -6.1823576      0.3561515
H      -0.6091071     -5.9961469      0.3957549
H       0.4721587     -3.8444524     -0.2555126
H      -0.9193090     -1.8970815     -0.9304867
H       2.1207911      4.0977127      3.6122714
C       1.8600548      3.1947504      3.0686449
H       3.4023052      1.6229596      3.4444228
H      -1.1094931      3.7351809      1.5471929
C       2.4852844      1.9873102      2.9906115
H       0.2001790      4.9708315      1.4542447
C      -0.2480803      4.1755566      2.0609536
N       0.7330079      3.1151955      2.2778192
H       6.8054299      1.2068568     -0.2259118
H       6.8010062      3.0127995     -1.9542187
C       5.8669084      1.4982279     -0.7006937
C       5.8662953      2.5215408     -1.6803260
N       1.7234463      1.1999608      2.1489531
H      -0.5584035      4.5759053      3.0322691
C       0.6698617      1.9072542      1.7284386
C       4.6979282      0.8663186     -0.3429514
C       4.6852191      2.8886294     -2.2816869
H       1.8955028     -0.8072918      3.8447980
H       4.7156381      0.0774467      0.4114724
H       4.6679412      3.6759530     -3.0386398
C       2.0094218     -0.1556965      1.7769587
C       2.0821617     -1.1167416      2.8154708
C       3.4591720      1.2241269     -0.9494085
C       3.4623287      2.2550271     -1.9348744
H      -0.1350198      1.5531800      1.0782983
C       2.2250992      0.5933306     -0.5989829
C       2.2295101      2.6251589     -2.5420540
C       2.2135130     -0.4673480      0.4485146
C       2.3805850     -2.4173499      2.5063634
H       2.2314700      3.4173776     -3.2938805
H       2.4470345     -3.1697322      3.2937872
C       1.0549369      2.0120307     -2.1989304
C       1.0424834      0.9744938     -1.2174153
C       2.5016436     -1.8319542      0.1190157
C       2.6040854     -2.8057293      1.1566151
O      -0.0945142      0.3721757     -0.8579730
H       0.1061373      2.3005281     -2.6504849
C       2.7153158     -2.2390043     -1.2273219
C       2.9330635     -4.1476907      0.8199292
H       2.6259441     -1.4976614     -2.0226938
H       3.0107792     -4.8844854      1.6216600
C       3.0287336     -3.5450146     -1.5220799
C       3.1450258     -4.5088596     -0.4890371
H       3.1875170     -3.8447722     -2.5588233
H       3.3965138     -5.5405190     -0.7391091
H      -1.4009310     -1.8631086      2.3356878
C      -3.8154719     -1.2065622      1.7795708
C      -4.9467013     -0.3972498      1.2697500
C      -3.0103528      0.8543236      1.1979309
C      -1.3449702     -0.8072538      2.0433259
C      -4.4791082      0.8171792      0.9145136
N      -2.6756187     -0.3902637      1.6766411
O      -2.2365870      1.7894529      1.0811227
O      -3.8143119     -2.3169977      2.2586949
H      -5.9640073     -0.7800654      1.2321036
H      -0.9652088     -0.2144643      2.8917471
H      -5.0187464      1.6963255      0.5652926
H      -0.6695140     -0.7094784      1.1813098
